Time (m)    , Stress_xx (MPa), Stress_yy (MPa), Stress_zz (MPa), Stress_xy (MPa), Stress_xz (MPa), Stress_yz (MPa), Strain_xx   , Strain_yy   , Strain_zz   , Strain_xy   , Strain_xz   , Strain_yz   
  0.00000000,   0.00000000,   0.00000000,   0.00000000,   0.00000000,   0.00000000,   0.00000000,   0.00000000,   0.00000000,   0.00000000,   0.00000000,   0.00000000,   0.00000000
  0.00050000,   0.05000009,  -0.00000014,  -0.00000019,   0.00000000,  -0.00000000,  -0.00000000,   0.00000662,  -0.00000175,  -0.00000052,   0.00000010,   0.00000003,   0.00000000
  0.00100000,   0.09999977,   0.00000009,  -0.00000028,   0.00000001,  -0.00000000,  -0.00000000,   0.00001421,  -0.00000405,  -0.00000113,   0.00000022,   0.00000007,   0.00000000
  0.00150000,   0.14999932,   0.00000001,   0.00000032,   0.00000001,   0.00000000,   0.00000000,   0.00002222,  -0.00000657,  -0.00000176,   0.00000035,   0.00000011,   0.00000001
  0.00200000,   0.19999923,   0.00000001,   0.00000003,   0.00000001,   0.00000000,   0.00000000,   0.00003054,  -0.00000925,  -0.00000242,   0.00000049,   0.00000016,   0.00000001
  0.00250000,   0.24999890,  -0.00000029,   0.00000002,   0.00000001,   0.00000000,   0.00000000,   0.00003910,  -0.00001206,  -0.00000310,   0.00000063,   0.00000020,   0.00000001
  0.00300000,   0.29999864,  -0.00000124,  -0.00000076,   0.00000000,   0.00000001,   0.00000000,   0.00004786,  -0.00001498,  -0.00000380,   0.00000077,   0.00000025,   0.00000001
  0.00350000,   0.34999757,  -0.00000258,  -0.00000544,  -0.00000003,  -0.00000001,   0.00000000,   0.00005679,  -0.00001799,  -0.00000450,   0.00000091,   0.00000030,   0.00000001
  0.00400000,   0.39999815,  -0.00000318,  -0.00000239,  -0.00000001,   0.00000003,   0.00000000,   0.00006587,  -0.00002107,  -0.00000522,   0.00000106,   0.00000035,   0.00000002
  0.00450000,   0.44999539,  -0.00000067,  -0.00000759,  -0.00000010,  -0.00000012,   0.00000000,   0.00007509,  -0.00002423,  -0.00000595,   0.00000121,   0.00000040,   0.00000002
  0.00500000,   0.49999353,  -0.00000087,   0.00000986,  -0.00000007,   0.00000009,   0.00000000,   0.00008444,  -0.00002745,  -0.00000669,   0.00000136,   0.00000045,   0.00000002
  0.00550000,   0.54999518,  -0.00000053,  -0.00000103,  -0.00000008,  -0.00000004,   0.00000000,   0.00009390,  -0.00003073,  -0.00000744,   0.00000152,   0.00000050,   0.00000002
  0.00600000,   0.59999327,   0.00000608,  -0.00003194,   0.00000007,  -0.00000038,  -0.00000001,   0.00010347,  -0.00003407,  -0.00000819,   0.00000168,   0.00000055,   0.00000003
  0.00650000,   0.64999427,  -0.00000144,   0.00000760,  -0.00000004,   0.00000008,   0.00000000,   0.00011314,  -0.00003747,  -0.00000896,   0.00000184,   0.00000061,   0.00000003
  0.00700000,   0.69999715,  -0.00000154,   0.00000101,  -0.00000006,   0.00000000,   0.00000000,   0.00012291,  -0.00004091,  -0.00000973,   0.00000200,   0.00000066,   0.00000003
  0.00750000,   0.74999649,  -0.00000089,   0.00000307,  -0.00000007,   0.00000002,   0.00000000,   0.00013277,  -0.00004440,  -0.00001051,   0.00000216,   0.00000071,   0.00000003
  0.00800000,   0.79999693,  -0.00000124,   0.00000341,  -0.00000006,   0.00000003,   0.00000000,   0.00014272,  -0.00004794,  -0.00001129,   0.00000232,   0.00000077,   0.00000003
  0.00850000,   0.84999229,  -0.00001266,  -0.00002944,  -0.00000031,  -0.00000021,   0.00000001,   0.00015274,  -0.00005152,  -0.00001208,   0.00000249,   0.00000082,   0.00000004
  0.00900000,   0.89998954,  -0.00001559,  -0.00002497,  -0.00000029,  -0.00000009,   0.00000001,   0.00016284,  -0.00005514,  -0.00001288,   0.00000266,   0.00000088,   0.00000004
  0.00950000,   0.94999391,  -0.00000184,   0.00001371,   0.00000001,   0.00000017,   0.00000000,   0.00017301,  -0.00005880,  -0.00001368,   0.00000283,   0.00000093,   0.00000004
  0.01000000,   0.99999656,  -0.00000982,  -0.00002336,  -0.00000019,  -0.00000020,   0.00000000,   0.00018326,  -0.00006250,  -0.00001448,   0.00000300,   0.00000099,   0.00000004
  0.07658333,   0.99999790,  -0.00000913,  -0.00002122,  -0.00000023,  -0.00000017,   0.00000004,   0.00023465,  -0.00009335,  -0.00001777,   0.00000397,   0.00000130,   0.00000005
  0.14316667,   0.99999771,  -0.00000923,  -0.00002286,  -0.00000022,  -0.00000019,   0.00000003,   0.00024168,  -0.00009913,  -0.00001799,   0.00000408,   0.00000134,   0.00000005
  0.20975000,   0.99999846,  -0.00000882,   0.00000336,  -0.00000022,   0.00000017,   0.00000001,   0.00024468,  -0.00010180,  -0.00001805,   0.00000412,   0.00000135,   0.00000005
  0.27633333,   1.00000010,  -0.00000631,  -0.00006469,  -0.00000022,  -0.00000084,   0.00000006,   0.00024611,  -0.00010313,  -0.00001807,   0.00000414,   0.00000136,   0.00000005
  0.34291667,   1.00000120,  -0.00000456,  -0.00000030,  -0.00000012,   0.00000006,   0.00000000,   0.00024683,  -0.00010381,  -0.00001807,   0.00000415,   0.00000136,   0.00000005
  0.40950000,   1.00000260,  -0.00000764,  -0.00002550,  -0.00000020,  -0.00000087,   0.00000005,   0.00024720,  -0.00010416,  -0.00001808,   0.00000416,   0.00000136,   0.00000005
  0.47608333,   1.00000340,  -0.00000714,  -0.00003442,  -0.00000011,  -0.00000043,   0.00000001,   0.00024741,  -0.00010436,  -0.00001808,   0.00000416,   0.00000136,   0.00000005
  0.54266667,   1.00000630,  -0.00000919,   0.00000403,  -0.00000001,  -0.00000006,   0.00000002,   0.00024753,  -0.00010449,  -0.00001808,   0.00000416,   0.00000136,   0.00000005
  0.60925000,   1.00000890,  -0.00002019,   0.00002018,  -0.00000009,   0.00000042,   0.00000005,   0.00024761,  -0.00010457,  -0.00001808,   0.00000416,   0.00000136,   0.00000005
  0.67583333,   1.00000830,  -0.00002114,  -0.00006662,  -0.00000016,  -0.00000076,   0.00000000,   0.00024767,  -0.00010463,  -0.00001808,   0.00000416,   0.00000136,   0.00000005
  0.74241667,   0.99999722,  -0.00001091,  -0.00002507,  -0.00000019,  -0.00000023,   0.00000001,   0.00024771,  -0.00010467,  -0.00001808,   0.00000417,   0.00000136,   0.00000005
  0.80900000,   0.99999821,  -0.00001330,  -0.00002820,  -0.00000019,  -0.00000027,   0.00000000,   0.00024776,  -0.00010472,  -0.00001808,   0.00000417,   0.00000137,   0.00000005
  0.87558333,   0.99999596,  -0.00001119,  -0.00001108,  -0.00000018,  -0.00000003,   0.00000000,   0.00024780,  -0.00010476,  -0.00001808,   0.00000417,   0.00000137,   0.00000005
  0.94216667,   0.99999835,  -0.00001404,  -0.00001004,  -0.00000017,  -0.00000002,   0.00000001,   0.00024784,  -0.00010480,  -0.00001809,   0.00000417,   0.00000137,   0.00000005
  1.00875000,   1.00000100,  -0.00001799,   0.00001402,  -0.00000017,   0.00000031,   0.00000001,   0.00024788,  -0.00010483,  -0.00001809,   0.00000417,   0.00000137,   0.00000005
  1.07533330,   0.99999989,  -0.00001380,  -0.00002718,  -0.00000016,  -0.00000028,   0.00000000,   0.00024792,  -0.00010487,  -0.00001809,   0.00000417,   0.00000137,   0.00000005
  1.14191670,   0.99999768,  -0.00001113,  -0.00002202,  -0.00000018,  -0.00000019,   0.00000001,   0.00024795,  -0.00010490,  -0.00001809,   0.00000417,   0.00000137,   0.00000005
  1.20850000,   0.99999722,  -0.00000992,  -0.00003036,  -0.00000019,  -0.00000031,   0.00000000,   0.00024799,  -0.00010493,  -0.00001809,   0.00000417,   0.00000137,   0.00000005
  1.27508330,   0.99999291,  -0.00000880,   0.00007417,  -0.00000019,   0.00000123,   0.00000001,   0.00024803,  -0.00010496,  -0.00001809,   0.00000417,   0.00000137,   0.00000005
  1.34166670,   0.99999659,  -0.00000958,  -0.00002122,  -0.00000020,  -0.00000017,   0.00000001,   0.00024806,  -0.00010499,  -0.00001810,   0.00000417,   0.00000137,   0.00000005
  1.40825000,   0.99999921,  -0.00001180,  -0.00005024,  -0.00000020,  -0.00000065,  -0.00000002,   0.00024810,  -0.00010502,  -0.00001810,   0.00000417,   0.00000137,   0.00000005
  1.47483330,   0.99999804,  -0.00001193,  -0.00001800,  -0.00000020,  -0.00000014,   0.00000000,   0.00024813,  -0.00010505,  -0.00001810,   0.00000417,   0.00000137,   0.00000005
  1.54141670,   0.99999768,  -0.00001099,  -0.00002622,  -0.00000019,  -0.00000025,   0.00000000,   0.00024817,  -0.00010508,  -0.00001810,   0.00000417,   0.00000137,   0.00000005
  1.60800000,   0.99999695,  -0.00001049,  -0.00001933,  -0.00000019,  -0.00000014,   0.00000000,   0.00024820,  -0.00010511,  -0.00001811,   0.00000417,   0.00000137,   0.00000005
  1.67458330,   0.99999781,  -0.00000646,  -0.00009833,  -0.00000019,  -0.00000132,  -0.00000000,   0.00024823,  -0.00010514,  -0.00001811,   0.00000417,   0.00000137,   0.00000005
  1.74116670,   0.99999645,  -0.00000946,  -0.00002576,  -0.00000019,  -0.00000024,   0.00000000,   0.00024826,  -0.00010517,  -0.00001811,   0.00000417,   0.00000137,   0.00000005
  1.80775000,   0.99999708,  -0.00001196,   0.00000544,  -0.00000019,   0.00000025,  -0.00000002,   0.00024830,  -0.00010519,  -0.00001811,   0.00000417,   0.00000137,   0.00000005
  1.87433330,   0.99999918,  -0.00001125,  -0.00005497,  -0.00000019,  -0.00000064,  -0.00000001,   0.00024833,  -0.00010522,  -0.00001812,   0.00000417,   0.00000137,   0.00000005
  1.94091670,   0.99999883,  -0.00001209,  -0.00003274,  -0.00000019,  -0.00000035,  -0.00000002,   0.00024836,  -0.00010525,  -0.00001812,   0.00000417,   0.00000137,   0.00000005
  2.00750000,   0.99999774,  -0.00001068,  -0.00003188,  -0.00000019,  -0.00000032,   0.00000000,   0.00024839,  -0.00010527,  -0.00001812,   0.00000417,   0.00000137,   0.00000005
  2.07408330,   0.99999665,  -0.00001019,  -0.00001748,  -0.00000019,  -0.00000012,   0.00000000,   0.00024842,  -0.00010530,  -0.00001812,   0.00000418,   0.00000137,   0.00000005
  2.14066670,   0.99999664,  -0.00001040,  -0.00001380,  -0.00000019,  -0.00000007,   0.00000000,   0.00024845,  -0.00010532,  -0.00001813,   0.00000418,   0.00000137,   0.00000005
  2.20725000,   0.99999699,  -0.00001017,  -0.00002589,  -0.00000019,  -0.00000024,   0.00000000,   0.00024848,  -0.00010534,  -0.00001813,   0.00000418,   0.00000137,   0.00000005
  2.27383330,   0.99999680,  -0.00001023,  -0.00002101,  -0.00000019,  -0.00000017,   0.00000000,   0.00024851,  -0.00010537,  -0.00001813,   0.00000418,   0.00000137,   0.00000005
  2.34041670,   0.99999694,  -0.00000736,  -0.00007099,  -0.00000019,  -0.00000086,   0.00000000,   0.00024854,  -0.00010539,  -0.00001814,   0.00000418,   0.00000137,   0.00000006
  2.40700000,   0.99999533,  -0.00000916,  -0.00000711,  -0.00000019,   0.00000004,   0.00000001,   0.00024857,  -0.00010542,  -0.00001813,   0.00000418,   0.00000137,   0.00000006
  2.47358330,   0.99999683,  -0.00001011,  -0.00002258,  -0.00000019,  -0.00000019,   0.00000001,   0.00024860,  -0.00010544,  -0.00001814,   0.00000418,   0.00000137,   0.00000006
  2.54016670,   0.99999685,  -0.00001045,  -0.00001761,  -0.00000019,  -0.00000012,   0.00000001,   0.00024863,  -0.00010546,  -0.00001814,   0.00000418,   0.00000137,   0.00000006
  2.60675000,   0.99999712,  -0.00001012,  -0.00002934,  -0.00000019,  -0.00000029,   0.00000000,   0.00024866,  -0.00010549,  -0.00001814,   0.00000418,   0.00000137,   0.00000006
  2.67333330,   0.99999752,  -0.00001049,  -0.00003166,  -0.00000019,  -0.00000032,  -0.00000000,   0.00024869,  -0.00010551,  -0.00001815,   0.00000418,   0.00000138,   0.00000006
  2.73991670,   0.99999888,  -0.00001040,  -0.00006344,  -0.00000019,  -0.00000077,  -0.00000001,   0.00024871,  -0.00010553,  -0.00001815,   0.00000418,   0.00000138,   0.00000006
  2.80650000,   0.99999895,  -0.00001122,  -0.00004947,  -0.00000019,  -0.00000057,  -0.00000005,   0.00024874,  -0.00010555,  -0.00001815,   0.00000418,   0.00000138,   0.00000006
  2.87308330,   0.99999690,  -0.00001060,  -0.00001497,  -0.00000019,  -0.00000008,   0.00000000,   0.00024877,  -0.00010557,  -0.00001815,   0.00000418,   0.00000138,   0.00000006
  2.93966670,   0.99999681,  -0.00000988,  -0.00002648,  -0.00000020,  -0.00000024,   0.00000001,   0.00024880,  -0.00010559,  -0.00001816,   0.00000418,   0.00000138,   0.00000006
  3.00625000,   0.99999658,  -0.00000996,  -0.00002055,  -0.00000020,  -0.00000016,   0.00000001,   0.00024882,  -0.00010562,  -0.00001816,   0.00000418,   0.00000138,   0.00000006
  3.07283330,   0.99999772,  -0.00000786,  -0.00008080,  -0.00000019,  -0.00000099,  -0.00000000,   0.00024885,  -0.00010564,  -0.00001816,   0.00000418,   0.00000138,   0.00000006
  3.13941670,   0.99999589,  -0.00000961,  -0.00001097,  -0.00000020,  -0.00000002,  -0.00000001,   0.00024888,  -0.00010566,  -0.00001816,   0.00000418,   0.00000138,   0.00000006
  3.20600000,   0.99999702,  -0.00001026,  -0.00002291,  -0.00000020,  -0.00000017,  -0.00000002,   0.00024890,  -0.00010568,  -0.00001817,   0.00000418,   0.00000138,   0.00000006
  3.27258330,   0.99999676,  -0.00001042,  -0.00001581,  -0.00000020,  -0.00000009,   0.00000000,   0.00024893,  -0.00010570,  -0.00001817,   0.00000418,   0.00000138,   0.00000006
  3.33916670,   0.99999696,  -0.00001075,  -0.00001456,  -0.00000020,  -0.00000008,   0.00000003,   0.00024895,  -0.00010572,  -0.00001817,   0.00000418,   0.00000138,   0.00000006
  3.40575000,   0.99999710,  -0.00001012,  -0.00002936,  -0.00000020,  -0.00000029,   0.00000001,   0.00024898,  -0.00010574,  -0.00001817,   0.00000418,   0.00000138,   0.00000006
  3.47233330,   0.99999741,  -0.00001010,  -0.00003656,  -0.00000020,  -0.00000039,  -0.00000000,   0.00024901,  -0.00010576,  -0.00001818,   0.00000418,   0.00000138,   0.00000006
  3.53891670,   0.99999676,  -0.00001025,  -0.00001924,  -0.00000020,  -0.00000014,   0.00000000,   0.00024903,  -0.00010578,  -0.00001818,   0.00000418,   0.00000138,   0.00000006
  3.60550000,   0.99999684,  -0.00001004,  -0.00002461,  -0.00000020,  -0.00000021,   0.00000001,   0.00024906,  -0.00010580,  -0.00001818,   0.00000418,   0.00000138,   0.00000006
  3.67208330,   0.99999466,  -0.00000962,   0.00001962,  -0.00000020,   0.00000041,  -0.00000001,   0.00024908,  -0.00010582,  -0.00001818,   0.00000418,   0.00000138,   0.00000006
  3.73866670,   0.99999636,  -0.00000972,  -0.00002035,  -0.00000020,  -0.00000015,  -0.00000000,   0.00024910,  -0.00010583,  -0.00001819,   0.00000418,   0.00000138,   0.00000006
  3.80525000,   0.99999892,  -0.00000953,  -0.00008246,  -0.00000019,  -0.00000105,  -0.00000002,   0.00024913,  -0.00010585,  -0.00001819,   0.00000418,   0.00000138,   0.00000006
  3.87183330,   0.99999687,  -0.00001002,  -0.00002664,  -0.00000020,  -0.00000024,  -0.00000000,   0.00024915,  -0.00010587,  -0.00001819,   0.00000419,   0.00000138,   0.00000006
  3.93841670,   0.99999678,  -0.00000993,  -0.00002525,  -0.00000020,  -0.00000022,   0.00000000,   0.00024918,  -0.00010589,  -0.00001819,   0.00000419,   0.00000138,   0.00000006
  4.00500000,   0.99999665,  -0.00001001,  -0.00002168,  -0.00000020,  -0.00000017,   0.00000001,   0.00024920,  -0.00010591,  -0.00001820,   0.00000419,   0.00000138,   0.00000006
  4.07158330,   0.99999701,  -0.00000824,  -0.00005918,  -0.00000020,  -0.00000071,  -0.00000001,   0.00024923,  -0.00010592,  -0.00001820,   0.00000419,   0.00000138,   0.00000006
  4.13816670,   0.99999716,  -0.00000855,  -0.00005902,  -0.00000019,  -0.00000072,  -0.00000004,   0.00024925,  -0.00010594,  -0.00001820,   0.00000419,   0.00000138,   0.00000006
  4.20475000,   0.99999816,  -0.00000890,  -0.00007598,  -0.00000019,  -0.00000095,  -0.00000000,   0.00024927,  -0.00010596,  -0.00001821,   0.00000419,   0.00000138,   0.00000005
  4.27133330,   0.99999694,  -0.00000981,  -0.00003206,  -0.00000019,  -0.00000032,   0.00000001,   0.00024930,  -0.00010598,  -0.00001821,   0.00000419,   0.00000138,   0.00000005
  4.33791670,   0.99999694,  -0.00000997,  -0.00002851,  -0.00000019,  -0.00000027,   0.00000001,   0.00024932,  -0.00010599,  -0.00001821,   0.00000419,   0.00000139,   0.00000005
  4.40450000,   0.99999675,  -0.00001004,  -0.00002333,  -0.00000019,  -0.00000020,   0.00000001,   0.00024934,  -0.00010601,  -0.00001821,   0.00000419,   0.00000139,   0.00000005
  4.47108330,   0.99999703,  -0.00000831,  -0.00005847,  -0.00000019,  -0.00000070,   0.00000001,   0.00024936,  -0.00010603,  -0.00001822,   0.00000419,   0.00000139,   0.00000005
  4.53766670,   0.99999551,  -0.00000968,  -0.00000141,  -0.00000019,   0.00000011,   0.00000001,   0.00024939,  -0.00010604,  -0.00001822,   0.00000419,   0.00000139,   0.00000005
  4.60425000,   0.99999658,  -0.00001011,  -0.00001611,  -0.00000019,  -0.00000009,   0.00000000,   0.00024941,  -0.00010606,  -0.00001822,   0.00000419,   0.00000139,   0.00000005
  4.67083330,   0.99999665,  -0.00001025,  -0.00001628,  -0.00000019,  -0.00000010,   0.00000000,   0.00024943,  -0.00010608,  -0.00001822,   0.00000419,   0.00000139,   0.00000005
  4.73741670,   0.99999699,  -0.00000993,  -0.00002964,  -0.00000019,  -0.00000029,   0.00000000,   0.00024945,  -0.00010609,  -0.00001823,   0.00000419,   0.00000139,   0.00000005
  4.80400000,   0.99999723,  -0.00001011,  -0.00003176,  -0.00000019,  -0.00000033,  -0.00000000,   0.00024948,  -0.00010611,  -0.00001823,   0.00000419,   0.00000139,   0.00000005
  4.87058330,   0.99999809,  -0.00001001,  -0.00005269,  -0.00000019,  -0.00000062,  -0.00000000,   0.00024950,  -0.00010613,  -0.00001823,   0.00000419,   0.00000139,   0.00000005
  4.93716670,   0.99999893,  -0.00000998,  -0.00007152,  -0.00000018,  -0.00000089,  -0.00000001,   0.00024952,  -0.00010614,  -0.00001824,   0.00000419,   0.00000139,   0.00000005
  5.00375000,   0.99999682,  -0.00001029,  -0.00001899,  -0.00000019,  -0.00000014,   0.00000000,   0.00024954,  -0.00010616,  -0.00001824,   0.00000419,   0.00000139,   0.00000005
  5.07033330,   0.99999679,  -0.00000981,  -0.00002667,  -0.00000019,  -0.00000025,  -0.00000000,   0.00024956,  -0.00010617,  -0.00001824,   0.00000419,   0.00000139,   0.00000005
  5.13691670,   0.99999650,  -0.00000997,  -0.00001815,  -0.00000019,  -0.00000013,   0.00000000,   0.00024958,  -0.00010619,  -0.00001824,   0.00000420,   0.00000139,   0.00000005
  5.20350000,   0.99999673,  -0.00001018,  -0.00001913,  -0.00000019,  -0.00000015,  -0.00000000,   0.00024960,  -0.00010620,  -0.00001824,   0.00000420,   0.00000139,   0.00000005
  5.27008330,   0.99999692,  -0.00001058,  -0.00001606,  -0.00000019,  -0.00000010,  -0.00000000,   0.00024962,  -0.00010622,  -0.00001825,   0.00000420,   0.00000139,   0.00000005
  5.33666670,   0.99999693,  -0.00001006,  -0.00002570,  -0.00000019,  -0.00000024,  -0.00000000,   0.00024964,  -0.00010623,  -0.00001825,   0.00000420,   0.00000139,   0.00000005
  5.40325000,   0.99999378,  -0.00001059,   0.00005593,  -0.00000019,   0.00000092,  -0.00000000,   0.00024966,  -0.00010625,  -0.00001825,   0.00000420,   0.00000139,   0.00000005
  5.46983330,   0.99999628,  -0.00000979,  -0.00001630,  -0.00000019,  -0.00000010,  -0.00000001,   0.00024969,  -0.00010626,  -0.00001825,   0.00000420,   0.00000139,   0.00000005
  5.53641670,   0.99999612,  -0.00001047,  -0.00000217,  -0.00000019,   0.00000009,  -0.00000001,   0.00024971,  -0.00010628,  -0.00001826,   0.00000420,   0.00000139,   0.00000005
  5.60300000,   0.99999695,  -0.00001063,  -0.00001587,  -0.00000019,  -0.00000010,  -0.00000000,   0.00024973,  -0.00010629,  -0.00001826,   0.00000420,   0.00000139,   0.00000005
  5.66958330,   0.99999799,  -0.00001045,  -0.00004273,  -0.00000019,  -0.00000048,  -0.00000000,   0.00024975,  -0.00010630,  -0.00001826,   0.00000420,   0.00000139,   0.00000005
  5.73616670,   0.99999895,  -0.00001010,  -0.00007003,  -0.00000019,  -0.00000088,   0.00000000,   0.00024977,  -0.00010632,  -0.00001827,   0.00000420,   0.00000139,   0.00000005
  5.80275000,   0.99999680,  -0.00001030,  -0.00001859,  -0.00000019,  -0.00000013,  -0.00000001,   0.00024978,  -0.00010633,  -0.00001827,   0.00000420,   0.00000139,   0.00000005
  5.86933330,   0.99999673,  -0.00000983,  -0.00002505,  -0.00000019,  -0.00000022,   0.00000000,   0.00024980,  -0.00010635,  -0.00001827,   0.00000420,   0.00000139,   0.00000005
  5.93591670,   0.99999644,  -0.00000994,  -0.00001778,  -0.00000019,  -0.00000012,   0.00000000,   0.00024982,  -0.00010636,  -0.00001827,   0.00000420,   0.00000139,   0.00000005
  6.00250000,   0.99999884,  -0.00000781,  -0.00010841,  -0.00000020,  -0.00000142,   0.00000001,   0.00024984,  -0.00010637,  -0.00001828,   0.00000420,   0.00000139,   0.00000005
  6.06908330,   0.99999660,  -0.00000972,  -0.00002540,  -0.00000019,  -0.00000023,  -0.00000000,   0.00024986,  -0.00010639,  -0.00001828,   0.00000420,   0.00000139,   0.00000005
  6.13566670,   0.99999591,  -0.00001080,   0.00001219,  -0.00000020,   0.00000032,  -0.00000002,   0.00024988,  -0.00010640,  -0.00001828,   0.00000420,   0.00000140,   0.00000005
  6.20225000,   0.99999825,  -0.00000966,  -0.00006312,  -0.00000019,  -0.00000075,  -0.00000001,   0.00024990,  -0.00010641,  -0.00001828,   0.00000420,   0.00000140,   0.00000005
  6.26883330,   0.99999736,  -0.00001045,  -0.00003066,  -0.00000019,  -0.00000029,  -0.00000002,   0.00024992,  -0.00010643,  -0.00001829,   0.00000420,   0.00000140,   0.00000005
  6.33541670,   0.99999711,  -0.00001000,  -0.00003083,  -0.00000019,  -0.00000030,  -0.00000000,   0.00024994,  -0.00010644,  -0.00001829,   0.00000420,   0.00000140,   0.00000005
  6.40200000,   0.99999659,  -0.00000995,  -0.00002089,  -0.00000019,  -0.00000016,   0.00000001,   0.00024996,  -0.00010645,  -0.00001829,   0.00000420,   0.00000140,   0.00000005
  6.46858330,   0.99999885,  -0.00000801,  -0.00010491,  -0.00000020,  -0.00000137,  -0.00000002,   0.00024998,  -0.00010646,  -0.00001830,   0.00000420,   0.00000140,   0.00000005
  6.53516670,   0.99999736,  -0.00000940,  -0.00004888,  -0.00000019,  -0.00000055,  -0.00000002,   0.00024999,  -0.00010648,  -0.00001830,   0.00000420,   0.00000140,   0.00000005
  6.60175000,   0.99999612,  -0.00001027,  -0.00000479,  -0.00000019,   0.00000008,  -0.00000002,   0.00025001,  -0.00010649,  -0.00001830,   0.00000420,   0.00000140,   0.00000006
  6.66833330,   0.99999592,  -0.00001076,   0.00000897,  -0.00000019,   0.00000029,  -0.00000005,   0.00025003,  -0.00010650,  -0.00001830,   0.00000420,   0.00000140,   0.00000006
  6.73491670,   0.99999716,  -0.00000994,  -0.00003432,  -0.00000019,  -0.00000034,  -0.00000001,   0.00025005,  -0.00010652,  -0.00001830,   0.00000420,   0.00000140,   0.00000006
  6.80150000,   0.99999719,  -0.00000998,  -0.00003541,  -0.00000019,  -0.00000037,   0.00000001,   0.00025006,  -0.00010653,  -0.00001831,   0.00000420,   0.00000140,   0.00000006
  6.86808330,   0.99999894,  -0.00000918,  -0.00008787,  -0.00000020,  -0.00000112,   0.00000006,   0.00025008,  -0.00010654,  -0.00001831,   0.00000420,   0.00000140,   0.00000006
  6.93466670,   0.99999581,  -0.00001073,   0.00001022,  -0.00000020,   0.00000027,   0.00000004,   0.00025010,  -0.00010655,  -0.00001831,   0.00000420,   0.00000140,   0.00000006
  7.00125000,   0.99999641,  -0.00001028,  -0.00000948,  -0.00000020,  -0.00000001,   0.00000006,   0.00025012,  -0.00010656,  -0.00001831,   0.00000420,   0.00000140,   0.00000006
  7.06783330,   0.99999645,  -0.00001016,  -0.00001478,  -0.00000020,  -0.00000007,   0.00000003,   0.00025013,  -0.00010658,  -0.00001832,   0.00000420,   0.00000140,   0.00000006
  7.13441670,   0.99999683,  -0.00000981,  -0.00002909,  -0.00000020,  -0.00000028,   0.00000000,   0.00025015,  -0.00010659,  -0.00001832,   0.00000420,   0.00000140,   0.00000006
  7.20100000,   0.99999654,  -0.00000997,  -0.00001986,  -0.00000020,  -0.00000015,   0.00000000,   0.00025017,  -0.00010660,  -0.00001832,   0.00000420,   0.00000140,   0.00000006
  7.26758330,   0.99999866,  -0.00000781,  -0.00010681,  -0.00000020,  -0.00000141,   0.00000001,   0.00025019,  -0.00010661,  -0.00001833,   0.00000420,   0.00000140,   0.00000006
  7.33416670,   0.99999668,  -0.00000963,  -0.00002977,  -0.00000020,  -0.00000030,   0.00000003,   0.00025020,  -0.00010662,  -0.00001833,   0.00000420,   0.00000140,   0.00000006
  7.40075000,   0.99999612,  -0.00001011,  -0.00000845,  -0.00000020,   0.00000001,   0.00000002,   0.00025022,  -0.00010663,  -0.00001833,   0.00000420,   0.00000140,   0.00000006
  7.46733330,   0.99999558,  -0.00001074,   0.00001486,  -0.00000020,   0.00000034,   0.00000003,   0.00025024,  -0.00010664,  -0.00001833,   0.00000420,   0.00000140,   0.00000006
  7.53391670,   0.99999702,  -0.00000991,  -0.00003216,  -0.00000020,  -0.00000032,   0.00000002,   0.00025025,  -0.00010665,  -0.00001834,   0.00000420,   0.00000140,   0.00000006
  7.60050000,   0.99999737,  -0.00000987,  -0.00004149,  -0.00000019,  -0.00000046,   0.00000001,   0.00025027,  -0.00010667,  -0.00001834,   0.00000420,   0.00000140,   0.00000006
  7.66708330,   0.99999957,  -0.00000896,  -0.00010584,  -0.00000019,  -0.00000136,  -0.00000002,   0.00025029,  -0.00010667,  -0.00001835,   0.00000420,   0.00000140,   0.00000006
  7.73366670,   0.99999581,  -0.00001085,   0.00001275,  -0.00000020,   0.00000033,  -0.00000004,   0.00025030,  -0.00010669,  -0.00001834,   0.00000420,   0.00000140,   0.00000006
  7.80025000,   0.99999658,  -0.00000992,  -0.00002208,  -0.00000020,  -0.00000017,   0.00000000,   0.00025032,  -0.00010670,  -0.00001835,   0.00000420,   0.00000140,   0.00000006
  7.86683330,   0.99999736,  -0.00000936,  -0.00005194,  -0.00000020,  -0.00000062,   0.00000006,   0.00025033,  -0.00010671,  -0.00001835,   0.00000420,   0.00000140,   0.00000006
  7.93341670,   0.99999634,  -0.00001000,  -0.00001538,  -0.00000020,  -0.00000009,   0.00000001,   0.00025035,  -0.00010672,  -0.00001835,   0.00000421,   0.00000140,   0.00000006
  8.00000000,   0.99999635,  -0.00001033,  -0.00000805,  -0.00000019,   0.00000004,  -0.00000003,   0.00025037,  -0.00010673,  -0.00001835,   0.00000421,   0.00000141,   0.00000006
  8.00025000,   0.97501577,  -0.00001962,  -0.00004269,  -0.00000010,   0.00000036,  -0.00000003,   0.00024731,  -0.00010599,  -0.00001812,   0.00000416,   0.00000139,   0.00000005
  8.00050000,   0.95000078,  -0.00000620,  -0.00000580,  -0.00000022,  -0.00000002,  -0.00000002,   0.00024381,  -0.00010500,  -0.00001784,   0.00000410,   0.00000138,   0.00000005
  8.00075000,   0.92500949,  -0.00001285,  -0.00002181,  -0.00000008,   0.00000004,  -0.00000003,   0.00024012,  -0.00010392,  -0.00001754,   0.00000404,   0.00000136,   0.00000005
  8.00100000,   0.90001013,  -0.00001398,  -0.00003130,  -0.00000011,  -0.00000006,  -0.00000003,   0.00023629,  -0.00010275,  -0.00001724,   0.00000398,   0.00000134,   0.00000005
  8.00125000,   0.87500702,   0.00001072,   0.00004681,   0.00000024,   0.00000054,  -0.00000004,   0.00023236,  -0.00010153,  -0.00001692,   0.00000392,   0.00000132,   0.00000005
  8.00150000,   0.85000587,  -0.00000925,  -0.00003306,  -0.00000011,  -0.00000018,  -0.00000003,   0.00022832,  -0.00010025,  -0.00001660,   0.00000386,   0.00000129,   0.00000005
  8.00175000,   0.82500196,  -0.00001083,  -0.00001882,  -0.00000015,  -0.00000002,  -0.00000003,   0.00022420,  -0.00009893,  -0.00001628,   0.00000379,   0.00000127,   0.00000005
  8.00200000,   0.80000218,  -0.00000978,  -0.00002819,  -0.00000013,  -0.00000014,  -0.00000003,   0.00022002,  -0.00009758,  -0.00001595,   0.00000372,   0.00000125,   0.00000005
  8.00225000,   0.77500166,   0.00000145,   0.00002321,   0.00000005,   0.00000031,  -0.00000004,   0.00021577,  -0.00009619,  -0.00001561,   0.00000365,   0.00000123,   0.00000005
  8.00250000,   0.75000166,  -0.00000962,  -0.00001860,  -0.00000012,  -0.00000005,  -0.00000003,   0.00021147,  -0.00009477,  -0.00001527,   0.00000358,   0.00000120,   0.00000004
  8.00275000,   0.72500007,  -0.00001073,  -0.00001105,  -0.00000016,   0.00000004,  -0.00000003,   0.00020712,  -0.00009333,  -0.00001492,   0.00000351,   0.00000118,   0.00000004
  8.00300000,   0.70000103,  -0.00000207,   0.00001618,  -0.00000003,   0.00000026,  -0.00000003,   0.00020273,  -0.00009186,  -0.00001457,   0.00000344,   0.00000116,   0.00000004
  8.00325000,   0.67500341,  -0.00000121,   0.00001443,  -0.00000002,   0.00000018,  -0.00000004,   0.00019829,  -0.00009037,  -0.00001422,   0.00000337,   0.00000113,   0.00000004
  8.00350000,   0.65000189,  -0.00000927,  -0.00002336,  -0.00000018,  -0.00000011,  -0.00000003,   0.00019381,  -0.00008887,  -0.00001387,   0.00000330,   0.00000111,   0.00000004
  8.00375000,   0.62500046,  -0.00001102,  -0.00001311,  -0.00000019,   0.00000002,  -0.00000003,   0.00018929,  -0.00008734,  -0.00001351,   0.00000323,   0.00000108,   0.00000004
  8.00400000,   0.60000074,  -0.00000388,   0.00000949,  -0.00000006,   0.00000019,  -0.00000003,   0.00018474,  -0.00008579,  -0.00001315,   0.00000315,   0.00000106,   0.00000004
  8.00425000,   0.57500081,  -0.00001015,  -0.00001498,  -0.00000014,  -0.00000002,  -0.00000003,   0.00018015,  -0.00008422,  -0.00001279,   0.00000308,   0.00000103,   0.00000004
  8.00450000,   0.54999980,  -0.00001037,  -0.00001134,  -0.00000016,   0.00000002,  -0.00000003,   0.00017553,  -0.00008264,  -0.00001242,   0.00000300,   0.00000101,   0.00000004
  8.00475000,   0.52500044,  -0.00001019,  -0.00001596,  -0.00000016,  -0.00000003,  -0.00000003,   0.00017088,  -0.00008104,  -0.00001206,   0.00000292,   0.00000098,   0.00000003
  8.00500000,   0.50000081,  -0.00001068,  -0.00001459,  -0.00000017,  -0.00000001,  -0.00000003,   0.00016620,  -0.00007942,  -0.00001169,   0.00000285,   0.00000096,   0.00000003
  8.00525000,   0.47500070,  -0.00000435,   0.00000625,  -0.00000007,   0.00000016,  -0.00000003,   0.00016149,  -0.00007779,  -0.00001131,   0.00000277,   0.00000093,   0.00000003
  8.00550000,   0.45000068,  -0.00000986,  -0.00001408,  -0.00000016,  -0.00000002,  -0.00000003,   0.00015674,  -0.00007614,  -0.00001094,   0.00000269,   0.00000091,   0.00000003
  8.00575000,   0.42500010,  -0.00001055,  -0.00001046,  -0.00000017,   0.00000003,  -0.00000003,   0.00015198,  -0.00007448,  -0.00001056,   0.00000261,   0.00000088,   0.00000003
  8.00600000,   0.40000060,  -0.00000534,   0.00000547,  -0.00000010,   0.00000016,  -0.00000003,   0.00014718,  -0.00007281,  -0.00001018,   0.00000254,   0.00000085,   0.00000003
  8.00625000,   0.37500072,  -0.00000997,  -0.00001359,  -0.00000015,  -0.00000001,  -0.00000003,   0.00014236,  -0.00007112,  -0.00000980,   0.00000246,   0.00000083,   0.00000003
  8.00650000,   0.35000023,  -0.00001051,  -0.00001057,  -0.00000017,   0.00000003,  -0.00000003,   0.00013752,  -0.00006942,  -0.00000942,   0.00000238,   0.00000080,   0.00000003
  8.00675000,   0.32500058,  -0.00000573,   0.00000439,  -0.00000010,   0.00000015,  -0.00000003,   0.00013265,  -0.00006770,  -0.00000903,   0.00000230,   0.00000078,   0.00000003
  8.00700000,   0.30000081,  -0.00001013,  -0.00001233,  -0.00000016,  -0.00000000,  -0.00000003,   0.00012775,  -0.00006598,  -0.00000865,   0.00000222,   0.00000075,   0.00000003
  8.00725000,   0.27499893,  -0.00000977,  -0.00000931,  -0.00000020,   0.00000001,  -0.00000003,   0.00012283,  -0.00006424,  -0.00000826,   0.00000213,   0.00000072,   0.00000002
  8.00750000,   0.24999818,  -0.00000985,  -0.00000526,  -0.00000019,   0.00000007,  -0.00000003,   0.00011790,  -0.00006249,  -0.00000787,   0.00000205,   0.00000069,   0.00000002
  8.00775000,   0.22499876,  -0.00000996,  -0.00000733,  -0.00000020,   0.00000004,  -0.00000003,   0.00011294,  -0.00006073,  -0.00000748,   0.00000197,   0.00000067,   0.00000002
  8.00800000,   0.19999917,  -0.00000980,  -0.00000929,  -0.00000020,   0.00000001,  -0.00000003,   0.00010795,  -0.00005895,  -0.00000709,   0.00000189,   0.00000064,   0.00000002
  8.00825000,   0.17499947,  -0.00000987,  -0.00000774,  -0.00000020,   0.00000003,  -0.00000003,   0.00010295,  -0.00005717,  -0.00000669,   0.00000181,   0.00000061,   0.00000002
  8.00850000,   0.14999932,  -0.00000972,  -0.00000902,  -0.00000020,   0.00000002,  -0.00000003,   0.00009793,  -0.00005537,  -0.00000630,   0.00000172,   0.00000059,   0.00000002
  8.00875000,   0.12499953,  -0.00001014,  -0.00000849,  -0.00000020,   0.00000003,  -0.00000003,   0.00009289,  -0.00005357,  -0.00000590,   0.00000164,   0.00000056,   0.00000002
  8.00900000,   0.09999965,  -0.00001011,  -0.00000903,  -0.00000019,   0.00000002,  -0.00000003,   0.00008783,  -0.00005175,  -0.00000550,   0.00000156,   0.00000053,   0.00000002
  8.00925000,   0.07499977,  -0.00001026,  -0.00000873,  -0.00000019,   0.00000003,  -0.00000003,   0.00008275,  -0.00004993,  -0.00000510,   0.00000147,   0.00000050,   0.00000001
  8.00950000,   0.04999981,  -0.00001035,  -0.00000784,  -0.00000019,   0.00000004,  -0.00000003,   0.00007766,  -0.00004810,  -0.00000470,   0.00000139,   0.00000047,   0.00000001
  8.00975000,   0.02499992,  -0.00001034,  -0.00000808,  -0.00000019,   0.00000004,  -0.00000003,   0.00007254,  -0.00004625,  -0.00000430,   0.00000130,   0.00000045,   0.00000001
  8.01000000,   0.00000006,  -0.00001022,  -0.00000833,  -0.00000020,   0.00000003,  -0.00000003,   0.00006742,  -0.00004440,  -0.00000389,   0.00000122,   0.00000042,   0.00000001
  8.14316670,   0.00000007,  -0.00001022,  -0.00000856,  -0.00000020,   0.00000003,  -0.00000003,   0.00000979,  -0.00000845,  -0.00000041,   0.00000014,   0.00000008,   0.00000000
  8.27633330,   0.00000007,  -0.00001022,  -0.00000841,  -0.00000020,   0.00000003,  -0.00000003,   0.00000507,  -0.00000431,  -0.00000031,   0.00000007,   0.00000005,   0.00000000
  8.40950000,   0.00000006,  -0.00001022,  -0.00000833,  -0.00000020,   0.00000003,  -0.00000003,   0.00000362,  -0.00000296,  -0.00000030,   0.00000005,   0.00000005,   0.00000000
  8.54266670,   0.00000006,  -0.00001022,  -0.00000833,  -0.00000020,   0.00000003,  -0.00000003,   0.00000312,  -0.00000247,  -0.00000030,   0.00000005,   0.00000004,   0.00000000
  8.67583330,   0.00000006,  -0.00001022,  -0.00000833,  -0.00000020,   0.00000003,  -0.00000003,   0.00000292,  -0.00000226,  -0.00000030,   0.00000005,   0.00000004,   0.00000000
  8.80900000,   0.00000006,  -0.00001022,  -0.00000833,  -0.00000020,   0.00000003,  -0.00000003,   0.00000282,  -0.00000216,  -0.00000030,   0.00000004,   0.00000004,   0.00000000
  8.94216670,   0.00000006,  -0.00001022,  -0.00000833,  -0.00000020,   0.00000003,  -0.00000003,   0.00000276,  -0.00000209,  -0.00000030,   0.00000004,   0.00000004,   0.00000000
  9.07533330,   0.00000006,  -0.00001022,  -0.00000834,  -0.00000020,   0.00000003,  -0.00000003,   0.00000270,  -0.00000203,  -0.00000031,   0.00000004,   0.00000004,   0.00000000
  9.20850000,   0.00000006,  -0.00001022,  -0.00000833,  -0.00000020,   0.00000003,  -0.00000003,   0.00000266,  -0.00000198,  -0.00000031,   0.00000004,   0.00000004,   0.00000000
  9.34166670,   0.00000006,  -0.00001022,  -0.00000833,  -0.00000020,   0.00000003,  -0.00000003,   0.00000261,  -0.00000194,  -0.00000031,   0.00000004,   0.00000004,   0.00000000
  9.47483330,   0.00000006,  -0.00001022,  -0.00000832,  -0.00000020,   0.00000003,  -0.00000003,   0.00000257,  -0.00000190,  -0.00000031,   0.00000004,   0.00000004,   0.00000000
  9.60800000,   0.00000006,  -0.00001022,  -0.00000833,  -0.00000020,   0.00000003,  -0.00000003,   0.00000253,  -0.00000185,  -0.00000031,   0.00000004,   0.00000004,   0.00000000
  9.74116670,   0.00000006,  -0.00001022,  -0.00000833,  -0.00000020,   0.00000003,  -0.00000003,   0.00000250,  -0.00000182,  -0.00000031,   0.00000004,   0.00000004,   0.00000000
  9.87433330,   0.00000006,  -0.00001022,  -0.00000833,  -0.00000020,   0.00000003,  -0.00000003,   0.00000246,  -0.00000178,  -0.00000031,   0.00000004,   0.00000004,   0.00000000
 10.00750000,   0.00000006,  -0.00001022,  -0.00000834,  -0.00000020,   0.00000003,  -0.00000003,   0.00000242,  -0.00000174,  -0.00000031,   0.00000004,   0.00000005,   0.00000000
 10.14066700,   0.00000006,  -0.00001022,  -0.00000832,  -0.00000020,   0.00000003,  -0.00000003,   0.00000239,  -0.00000171,  -0.00000031,   0.00000004,   0.00000005,   0.00000000
 10.27383300,   0.00000006,  -0.00001022,  -0.00000833,  -0.00000020,   0.00000003,  -0.00000003,   0.00000236,  -0.00000168,  -0.00000031,   0.00000004,   0.00000005,   0.00000000
 10.40700000,   0.00000006,  -0.00001022,  -0.00000833,  -0.00000020,   0.00000003,  -0.00000003,   0.00000232,  -0.00000165,  -0.00000031,   0.00000004,   0.00000005,   0.00000000
 10.54016700,   0.00000006,  -0.00001022,  -0.00000833,  -0.00000020,   0.00000003,  -0.00000003,   0.00000229,  -0.00000162,  -0.00000031,   0.00000004,   0.00000005,   0.00000000
 10.67333300,   0.00000006,  -0.00001022,  -0.00000833,  -0.00000020,   0.00000003,  -0.00000003,   0.00000226,  -0.00000159,  -0.00000031,   0.00000004,   0.00000005,   0.00000000
 10.80650000,   0.00000006,  -0.00001022,  -0.00000833,  -0.00000020,   0.00000003,  -0.00000003,   0.00000223,  -0.00000156,  -0.00000031,   0.00000004,   0.00000005,   0.00000000
 10.93966700,   0.00000006,  -0.00001022,  -0.00000833,  -0.00000020,   0.00000003,  -0.00000003,   0.00000220,  -0.00000153,  -0.00000031,   0.00000004,   0.00000005,   0.00000000
 11.07283300,   0.00000006,  -0.00001022,  -0.00000834,  -0.00000020,   0.00000003,  -0.00000003,   0.00000217,  -0.00000150,  -0.00000031,   0.00000004,   0.00000005,   0.00000000
 11.20600000,   0.00000006,  -0.00001022,  -0.00000833,  -0.00000020,   0.00000003,  -0.00000003,   0.00000215,  -0.00000148,  -0.00000031,   0.00000004,   0.00000005,   0.00000000
 11.33916700,   0.00000006,  -0.00001022,  -0.00000833,  -0.00000020,   0.00000003,  -0.00000003,   0.00000212,  -0.00000145,  -0.00000031,   0.00000003,   0.00000005,   0.00000000
 11.47233300,   0.00000006,  -0.00001022,  -0.00000833,  -0.00000020,   0.00000003,  -0.00000003,   0.00000209,  -0.00000143,  -0.00000031,   0.00000003,   0.00000005,   0.00000000
 11.60550000,   0.00000006,  -0.00001022,  -0.00000832,  -0.00000020,   0.00000003,  -0.00000003,   0.00000207,  -0.00000140,  -0.00000031,   0.00000003,   0.00000005,   0.00000000
 11.73866700,   0.00000006,  -0.00001022,  -0.00000834,  -0.00000020,   0.00000003,  -0.00000003,   0.00000204,  -0.00000138,  -0.00000031,   0.00000003,   0.00000005,   0.00000000
 11.87183300,   0.00000006,  -0.00001022,  -0.00000834,  -0.00000020,   0.00000003,  -0.00000003,   0.00000202,  -0.00000135,  -0.00000031,   0.00000003,   0.00000005,   0.00000000
 12.00500000,   0.00000006,  -0.00001022,  -0.00000833,  -0.00000020,   0.00000003,  -0.00000003,   0.00000199,  -0.00000133,  -0.00000031,   0.00000003,   0.00000005,   0.00000000
 12.13816700,   0.00000006,  -0.00001022,  -0.00000833,  -0.00000020,   0.00000003,  -0.00000003,   0.00000197,  -0.00000131,  -0.00000031,   0.00000003,   0.00000005,   0.00000000
 12.27133300,   0.00000006,  -0.00001022,  -0.00000833,  -0.00000020,   0.00000003,  -0.00000003,   0.00000195,  -0.00000129,  -0.00000031,   0.00000003,   0.00000005,   0.00000000
 12.40450000,   0.00000006,  -0.00001022,  -0.00000833,  -0.00000020,   0.00000003,  -0.00000003,   0.00000192,  -0.00000127,  -0.00000031,   0.00000003,   0.00000005,   0.00000000
 12.53766700,   0.00000006,  -0.00001022,  -0.00000834,  -0.00000020,   0.00000003,  -0.00000003,   0.00000190,  -0.00000125,  -0.00000031,   0.00000003,   0.00000004,  -0.00000000
 12.67083300,   0.00000006,  -0.00001022,  -0.00000833,  -0.00000020,   0.00000003,  -0.00000003,   0.00000188,  -0.00000123,  -0.00000031,   0.00000003,   0.00000004,  -0.00000000
 12.80400000,   0.00000006,  -0.00001022,  -0.00000833,  -0.00000020,   0.00000003,  -0.00000003,   0.00000186,  -0.00000121,  -0.00000031,   0.00000003,   0.00000004,  -0.00000000
 12.93716700,   0.00000006,  -0.00001022,  -0.00000833,  -0.00000020,   0.00000003,  -0.00000003,   0.00000184,  -0.00000119,  -0.00000031,   0.00000003,   0.00000004,  -0.00000000
 13.07033300,   0.00000006,  -0.00001022,  -0.00000834,  -0.00000020,   0.00000003,  -0.00000003,   0.00000182,  -0.00000117,  -0.00000031,   0.00000003,   0.00000004,  -0.00000000
 13.20350000,   0.00000006,  -0.00001022,  -0.00000833,  -0.00000020,   0.00000003,  -0.00000003,   0.00000180,  -0.00000115,  -0.00000031,   0.00000003,   0.00000004,  -0.00000000
 13.33666700,   0.00000006,  -0.00001022,  -0.00000833,  -0.00000020,   0.00000003,  -0.00000003,   0.00000178,  -0.00000113,  -0.00000031,   0.00000003,   0.00000004,  -0.00000000
 13.46983300,   0.00000006,  -0.00001022,  -0.00000833,  -0.00000020,   0.00000003,  -0.00000003,   0.00000176,  -0.00000112,  -0.00000031,   0.00000003,   0.00000004,  -0.00000000
 13.60300000,   0.00000006,  -0.00001022,  -0.00000833,  -0.00000020,   0.00000003,  -0.00000003,   0.00000174,  -0.00000110,  -0.00000031,   0.00000003,   0.00000004,  -0.00000000
 13.73616700,   0.00000006,  -0.00001022,  -0.00000833,  -0.00000020,   0.00000003,  -0.00000003,   0.00000173,  -0.00000108,  -0.00000031,   0.00000003,   0.00000004,  -0.00000000
 13.86933300,   0.00000006,  -0.00001022,  -0.00000833,  -0.00000020,   0.00000003,  -0.00000003,   0.00000171,  -0.00000107,  -0.00000031,   0.00000003,   0.00000004,  -0.00000000
 14.00250000,   0.00000006,  -0.00001022,  -0.00000833,  -0.00000020,   0.00000003,  -0.00000003,   0.00000169,  -0.00000105,  -0.00000031,   0.00000003,   0.00000004,  -0.00000000
 14.13566700,   0.00000006,  -0.00001022,  -0.00000834,  -0.00000020,   0.00000003,  -0.00000003,   0.00000167,  -0.00000104,  -0.00000031,   0.00000003,   0.00000004,  -0.00000000
 14.26883300,   0.00000006,  -0.00001022,  -0.00000833,  -0.00000020,   0.00000003,  -0.00000003,   0.00000166,  -0.00000102,  -0.00000031,   0.00000003,   0.00000004,  -0.00000000
 14.40200000,   0.00000006,  -0.00001022,  -0.00000832,  -0.00000020,   0.00000003,  -0.00000003,   0.00000164,  -0.00000101,  -0.00000031,   0.00000003,   0.00000004,  -0.00000000
 14.53516700,   0.00000006,  -0.00001022,  -0.00000833,  -0.00000020,   0.00000003,  -0.00000003,   0.00000163,  -0.00000099,  -0.00000031,   0.00000003,   0.00000004,  -0.00000000
 14.66833300,   0.00000006,  -0.00001022,  -0.00000833,  -0.00000020,   0.00000003,  -0.00000003,   0.00000161,  -0.00000098,  -0.00000031,   0.00000003,   0.00000004,  -0.00000000
 14.80150000,   0.00000006,  -0.00001022,  -0.00000833,  -0.00000020,   0.00000003,  -0.00000003,   0.00000159,  -0.00000096,  -0.00000031,   0.00000003,   0.00000004,  -0.00000000
 14.93466700,   0.00000006,  -0.00001022,  -0.00000833,  -0.00000020,   0.00000003,  -0.00000003,   0.00000158,  -0.00000095,  -0.00000031,   0.00000003,   0.00000004,  -0.00000000
 15.06783300,   0.00000006,  -0.00001022,  -0.00000833,  -0.00000020,   0.00000003,  -0.00000003,   0.00000157,  -0.00000094,  -0.00000031,   0.00000003,   0.00000004,  -0.00000000
 15.20100000,   0.00000006,  -0.00001022,  -0.00000833,  -0.00000020,   0.00000003,  -0.00000003,   0.00000155,  -0.00000092,  -0.00000031,   0.00000003,   0.00000004,  -0.00000000
 15.33416700,   0.00000006,  -0.00001022,  -0.00000833,  -0.00000020,   0.00000003,  -0.00000003,   0.00000154,  -0.00000091,  -0.00000030,   0.00000003,   0.00000004,  -0.00000000
 15.46733300,   0.00000006,  -0.00001022,  -0.00000833,  -0.00000020,   0.00000003,  -0.00000003,   0.00000152,  -0.00000090,  -0.00000030,   0.00000003,   0.00000004,  -0.00000000
 15.60050000,   0.00000006,  -0.00001022,  -0.00000833,  -0.00000020,   0.00000003,  -0.00000003,   0.00000151,  -0.00000089,  -0.00000030,   0.00000003,   0.00000004,  -0.00000000
 15.73366700,   0.00000006,  -0.00001022,  -0.00000833,  -0.00000020,   0.00000003,  -0.00000003,   0.00000150,  -0.00000088,  -0.00000030,   0.00000003,   0.00000004,  -0.00000000
 15.86683300,   0.00000006,  -0.00001022,  -0.00000833,  -0.00000020,   0.00000003,  -0.00000003,   0.00000149,  -0.00000087,  -0.00000030,   0.00000003,   0.00000004,  -0.00000000
 16.00000000,   0.00000006,  -0.00001022,  -0.00000833,  -0.00000020,   0.00000003,  -0.00000003,   0.00000147,  -0.00000085,  -0.00000030,   0.00000003,   0.00000004,  -0.00000000
