Time (m)    , Stress_xx (MPa), Stress_yy (MPa), Stress_zz (MPa), Stress_xy (MPa), Stress_xz (MPa), Stress_yz (MPa), Strain_xx   , Strain_yy   , Strain_zz   , Strain_xy   , Strain_xz   , Strain_yz   
 0.000000000,  0.000000000,  0.000000000,  0.000000000,  0.000000000,  0.000000000,  0.000000000,  0.000000000,  0.000000000,  0.000000000,  0.000000000,  0.000000000,  0.000000000
 0.000500000, -0.000000133,  0.000000055,  0.050000708,  0.000000002,  0.000000010,  0.000000000, -0.000000517, -0.000000723,  0.000002165,  0.000000000, -0.000000175,  0.000000000
 0.001000000, -0.000000273,  0.000000152,  0.100002117,  0.000000003,  0.000000025,  0.000000000, -0.000001115, -0.000001560,  0.000004492, -0.000000002, -0.000000380, -0.000000003
 0.001500000, -0.000000053,  0.000000010,  0.150003672,  0.000000005,  0.000000002,  0.000000000, -0.000001747, -0.000002425,  0.000006862, -0.000000003, -0.000000592, -0.000000003
 0.002000000,  0.000000585,  0.000000757,  0.200002045,  0.000000000,  0.000000168,  0.000000000, -0.000002400, -0.000003305,  0.000009258, -0.000000005, -0.000000810, -0.000000003
 0.002500000, -0.000000645,  0.000001960,  0.250000925,  0.000000027,  0.000001062,  0.000000003, -0.000003073, -0.000004197,  0.000011678, -0.000000007, -0.000001030, -0.000000007
 0.003000000, -0.000001578,  0.000002452,  0.300001128,  0.000000025,  0.000000922,  0.000000005, -0.000003763, -0.000005093,  0.000014112, -0.000000007, -0.000001250, -0.000000007
 0.003500000, -0.000000440,  0.000001408,  0.349999482,  0.000000022,  0.000000740,  0.000000002, -0.000004463, -0.000005997,  0.000016558, -0.000000008, -0.000001473, -0.000000010
 0.004000000, -0.000000515,  0.000001348,  0.399999515,  0.000000023,  0.000000630,  0.000000002, -0.000005173, -0.000006902,  0.000019018, -0.000000010, -0.000001700, -0.000000008
 0.004500000,  0.000000562,  0.000000733,  0.449997880,  0.000000017,  0.000000832, -0.000000003, -0.000005895, -0.000007813,  0.000021488, -0.000000010, -0.000001925, -0.000000012
 0.005000000, -0.000000345,  0.000001235,  0.499997570,  0.000000020,  0.000000640, -0.000000003, -0.000006628, -0.000008728,  0.000023965, -0.000000013, -0.000002153, -0.000000013
 0.005500000,  0.000000637,  0.000000327,  0.549999152,  0.000000017,  0.000000757, -0.000000005, -0.000007370, -0.000009645,  0.000026450, -0.000000017, -0.000002380, -0.000000013
 0.006000000, -0.000000177,  0.000001002,  0.599997532,  0.000000018,  0.000000528, -0.000000002, -0.000008117, -0.000010565,  0.000028942, -0.000000017, -0.000002613, -0.000000015
 0.006500000, -0.000000017,  0.000000742,  0.649998118,  0.000000017,  0.000000482,  0.000000002, -0.000008873, -0.000011487,  0.000031440, -0.000000018, -0.000002842, -0.000000017
 0.007000000, -0.000000135,  0.000000760,  0.699998533,  0.000000015,  0.000000445,  0.000000000, -0.000009638, -0.000012412,  0.000033945, -0.000000018, -0.000003075, -0.000000018
 0.007500000, -0.000000037,  0.000000655,  0.749998477,  0.000000013,  0.000000423,  0.000000000, -0.000010412, -0.000013335,  0.000036457, -0.000000018, -0.000003307, -0.000000018
 0.008000000,  0.000000353,  0.000000465,  0.799998440,  0.000000013,  0.000000512, -0.000000002, -0.000011188, -0.000014265,  0.000038973, -0.000000022, -0.000003542, -0.000000022
 0.008500000,  0.000005130, -0.000002785,  0.849999585,  0.000000017,  0.000000932, -0.000000013, -0.000011970, -0.000015193,  0.000041497, -0.000000022, -0.000003777, -0.000000023
 0.009000000,  0.000021553, -0.000013733,  0.900001490,  0.000000030,  0.000002648, -0.000000005, -0.000012757, -0.000016125,  0.000044025, -0.000000022, -0.000004010, -0.000000025
 0.009500000, -0.000000395,  0.000005483,  0.949974022,  0.000000100,  0.000001058,  0.000000003, -0.000013553, -0.000017055,  0.000046552, -0.000000023, -0.000004245, -0.000000023
 0.010000000, -0.000009583,  0.000016975,  0.999984980,  0.000000128,  0.000001978, -0.000000010, -0.000014352, -0.000017987,  0.000049088, -0.000000027, -0.000004483, -0.000000023
 0.076583330, -0.000015308,  0.000012618,  1.000023648,  0.000000047,  0.000002467, -0.000000015, -0.000017617, -0.000019842,  0.000052602, -0.000000032, -0.000005113, -0.000000030
 0.143166670, -0.000011208,  0.000015567,  0.999974265,  0.000000093,  0.000001855, -0.000000012, -0.000017827, -0.000020360,  0.000053115, -0.000000032, -0.000005248, -0.000000028
 0.209750000, -0.000011752,  0.000015570,  0.999997057,  0.000000098,  0.000002355, -0.000000020, -0.000017887, -0.000020612,  0.000053337, -0.000000032, -0.000005307, -0.000000030
 0.276333330, -0.000009370,  0.000014565,  0.999972588,  0.000000103,  0.000001370, -0.000000015, -0.000017905, -0.000020740,  0.000053442, -0.000000032, -0.000005337, -0.000000030
 0.342916670, -0.000010370,  0.000016950,  0.999975688,  0.000000110,  0.000002268, -0.000000018, -0.000017907, -0.000020802,  0.000053485, -0.000000032, -0.000005352, -0.000000032
 0.409500000, -0.000005848,  0.000012550,  0.999974362,  0.000000133, -0.000000285, -0.000000008, -0.000017908, -0.000020833,  0.000053512, -0.000000032, -0.000005357, -0.000000032
 0.476083330, -0.000007402,  0.000013748,  0.999993833,  0.000000135,  0.000000428,  0.000000000, -0.000017910, -0.000020852,  0.000053523, -0.000000032, -0.000005363, -0.000000030
 0.542666670, -0.000008343,  0.000014912,  1.000000465,  0.000000137,  0.000001172, -0.000000005, -0.000017915, -0.000020862,  0.000053533, -0.000000032, -0.000005363, -0.000000030
 0.609250000, -0.000006750,  0.000009848,  1.000024333,  0.000000142,  0.000000865,  0.000000005, -0.000017915, -0.000020870,  0.000053540, -0.000000032, -0.000005365, -0.000000030
 0.675833330, -0.000005958,  0.000013075,  0.999964595,  0.000000135,  0.000000650, -0.000000007, -0.000017915, -0.000020873,  0.000053542, -0.000000032, -0.000005365, -0.000000030
 0.742416670, -0.000007003,  0.000014050,  0.999972788,  0.000000130,  0.000001245, -0.000000010, -0.000017917, -0.000020880,  0.000053543, -0.000000032, -0.000005365, -0.000000030
 0.809000000, -0.000009010,  0.000014922,  1.000009082,  0.000000128,  0.000002148, -0.000000023, -0.000017917, -0.000020882,  0.000053552, -0.000000032, -0.000005365, -0.000000030
 0.875583330, -0.000009165,  0.000016608,  0.999984258,  0.000000125,  0.000002110, -0.000000022, -0.000017917, -0.000020883,  0.000053553, -0.000000032, -0.000005367, -0.000000030
 0.942166670, -0.000009582,  0.000016910,  0.999984195,  0.000000125,  0.000002098, -0.000000010, -0.000017918, -0.000020890,  0.000053557, -0.000000032, -0.000005367, -0.000000032
 1.008750000, -0.000009383,  0.000017003,  0.999978012,  0.000000123,  0.000001905, -0.000000007, -0.000017925, -0.000020890,  0.000053560, -0.000000032, -0.000005370, -0.000000032
 1.075333300, -0.000009207,  0.000016915,  0.999975953,  0.000000125,  0.000001800, -0.000000012, -0.000017927, -0.000020892,  0.000053562, -0.000000032, -0.000005373, -0.000000032
 1.141916700, -0.000009550,  0.000016697,  0.999986367,  0.000000125,  0.000001968, -0.000000008, -0.000017927, -0.000020893,  0.000053567, -0.000000032, -0.000005373, -0.000000032
 1.208500000, -0.000009437,  0.000016633,  0.999984598,  0.000000128,  0.000001960, -0.000000007, -0.000017927, -0.000020900,  0.000053570, -0.000000032, -0.000005373, -0.000000032
 1.275083300, -0.000009945,  0.000016590,  0.999997923,  0.000000125,  0.000002148, -0.000000008, -0.000017928, -0.000020900,  0.000053573, -0.000000032, -0.000005373, -0.000000032
 1.341666700, -0.000009743,  0.000016623,  0.999992212,  0.000000127,  0.000002070, -0.000000008, -0.000017935, -0.000020900,  0.000053577, -0.000000032, -0.000005373, -0.000000032
 1.408250000, -0.000009135,  0.000017302,  0.999967643,  0.000000125,  0.000001708, -0.000000007, -0.000017935, -0.000020902,  0.000053582, -0.000000032, -0.000005373, -0.000000032
 1.474833300, -0.000009672,  0.000016827,  0.999987557,  0.000000128,  0.000002007, -0.000000010, -0.000017937, -0.000020903,  0.000053583, -0.000000032, -0.000005375, -0.000000032
 1.541416700, -0.000009577,  0.000016702,  0.999985697,  0.000000132,  0.000001992, -0.000000002, -0.000017938, -0.000020908,  0.000053587, -0.000000032, -0.000005375, -0.000000032
 1.608000000, -0.000009432,  0.000016853,  0.999982807,  0.000000128,  0.000001950, -0.000000007, -0.000017940, -0.000020910,  0.000053590, -0.000000032, -0.000005375, -0.000000032
 1.674583300, -0.000008858,  0.000017253,  0.999963500,  0.000000127,  0.000001667, -0.000000010, -0.000017945, -0.000020910,  0.000053592, -0.000000032, -0.000005375, -0.000000032
 1.741166700, -0.000009373,  0.000017088,  0.999977283,  0.000000127,  0.000001870, -0.000000008, -0.000017947, -0.000020910,  0.000053595, -0.000000032, -0.000005375, -0.000000032
 1.807750000, -0.000009762,  0.000016958,  0.999989607,  0.000000128,  0.000002050, -0.000000010, -0.000017947, -0.000020910,  0.000053600, -0.000000032, -0.000005378, -0.000000032
 1.874333300, -0.000009737,  0.000016893,  0.999988332,  0.000000132,  0.000002032, -0.000000005, -0.000017948, -0.000020910,  0.000053603, -0.000000032, -0.000005382, -0.000000032
 1.940916700, -0.000009992,  0.000016663,  0.999999128,  0.000000127,  0.000002187, -0.000000005, -0.000017955, -0.000020913,  0.000053607, -0.000000032, -0.000005383, -0.000000032
 2.007500000, -0.000008863,  0.000017332,  0.999962263,  0.000000128,  0.000001662, -0.000000010, -0.000017955, -0.000020915,  0.000053608, -0.000000032, -0.000005383, -0.000000032
 2.074083300, -0.000009402,  0.000016935,  0.999982392,  0.000000132,  0.000001942, -0.000000010, -0.000017957, -0.000020918,  0.000053610, -0.000000032, -0.000005383, -0.000000032
 2.140666700, -0.000009580,  0.000016953,  0.999986803,  0.000000128,  0.000002007, -0.000000008, -0.000017958, -0.000020920,  0.000053618, -0.000000032, -0.000005383, -0.000000032
 2.207250000, -0.000009352,  0.000017092,  0.999977935,  0.000000125,  0.000001873, -0.000000007, -0.000017963, -0.000020920,  0.000053620, -0.000000032, -0.000005383, -0.000000032
 2.273833300, -0.000009735,  0.000016858,  0.999989710,  0.000000123,  0.000002033, -0.000000005, -0.000017967, -0.000020920,  0.000053623, -0.000000032, -0.000005385, -0.000000032
 2.340416700, -0.000009997,  0.000016705,  0.999999955,  0.000000127,  0.000002183, -0.000000013, -0.000017967, -0.000020920,  0.000053625, -0.000000032, -0.000005385, -0.000000032
 2.407000000, -0.000009952,  0.000016702,  0.999998618,  0.000000128,  0.000002177, -0.000000017, -0.000017968, -0.000020922,  0.000053632, -0.000000032, -0.000005385, -0.000000032
 2.473583300, -0.000009612,  0.000016890,  0.999985422,  0.000000127,  0.000001983, -0.000000012, -0.000017972, -0.000020923,  0.000053632, -0.000000033, -0.000005385, -0.000000032
 2.540166700, -0.000009257,  0.000017110,  0.999973355,  0.000000127,  0.000001803, -0.000000012, -0.000017977, -0.000020923,  0.000053633, -0.000000033, -0.000005385, -0.000000032
 2.606750000, -0.000009772,  0.000016877,  0.999990497,  0.000000127,  0.000002053, -0.000000012, -0.000017977, -0.000020923,  0.000053640, -0.000000033, -0.000005385, -0.000000032
 2.673333300, -0.000009938,  0.000016743,  0.999997372,  0.000000132,  0.000002153, -0.000000017, -0.000017978, -0.000020927,  0.000053642, -0.000000033, -0.000005392, -0.000000032
 2.739916700, -0.000009803,  0.000016827,  0.999992027,  0.000000127,  0.000002077, -0.000000007, -0.000017982, -0.000020928,  0.000053642, -0.000000033, -0.000005392, -0.000000032
 2.806500000, -0.000009518,  0.000016997,  0.999982280,  0.000000128,  0.000001937, -0.000000010, -0.000017987, -0.000020928,  0.000053647, -0.000000033, -0.000005392, -0.000000030
 2.873083300, -0.000009222,  0.000017148,  0.999972935,  0.000000127,  0.000001797, -0.000000012, -0.000017987, -0.000020930,  0.000053652, -0.000000033, -0.000005393, -0.000000030
 2.939666700, -0.000009688,  0.000016907,  0.999989037,  0.000000128,  0.000002017, -0.000000012, -0.000017987, -0.000020930,  0.000053653, -0.000000033, -0.000005393, -0.000000030
 3.006250000, -0.000010263,  0.000016558,  1.000008700,  0.000000128,  0.000002302, -0.000000005, -0.000017992, -0.000020930,  0.000053658, -0.000000033, -0.000005393, -0.000000030
 3.072833300, -0.000009880,  0.000016725,  0.999994825,  0.000000128,  0.000002110, -0.000000007, -0.000017997, -0.000020932,  0.000053662, -0.000000033, -0.000005393, -0.000000030
 3.139416700, -0.000008827,  0.000017375,  0.999959718,  0.000000125,  0.000001617, -0.000000010, -0.000017997, -0.000020932,  0.000053662, -0.000000033, -0.000005395, -0.000000030
 3.206000000, -0.000009668,  0.000016905,  0.999989505,  0.000000123,  0.000002037, -0.000000010, -0.000017998, -0.000020932,  0.000053665, -0.000000033, -0.000005395, -0.000000030
 3.272583300, -0.000009352,  0.000017068,  0.999978447,  0.000000128,  0.000001880, -0.000000013, -0.000018002, -0.000020933,  0.000053670, -0.000000032, -0.000005395, -0.000000030
 3.339166700, -0.000010182,  0.000016605,  1.000004095,  0.000000130,  0.000002235, -0.000000017, -0.000018007, -0.000020933,  0.000053672, -0.000000032, -0.000005395, -0.000000030
 3.405750000, -0.000009832,  0.000016822,  0.999993460,  0.000000127,  0.000002093, -0.000000017, -0.000018007, -0.000020937,  0.000053677, -0.000000032, -0.000005397, -0.000000030
 3.472333300, -0.000009555,  0.000017008,  0.999983812,  0.000000127,  0.000001965, -0.000000008, -0.000018008, -0.000020938,  0.000053680, -0.000000032, -0.000005398, -0.000000030
 3.538916700, -0.000009573,  0.000016972,  0.999984912,  0.000000127,  0.000001978, -0.000000012, -0.000018012, -0.000020940,  0.000053682, -0.000000032, -0.000005400, -0.000000030
 3.605500000, -0.000008915,  0.000017332,  0.999964090,  0.000000127,  0.000001680, -0.000000005, -0.000018015, -0.000020940,  0.000053683, -0.000000032, -0.000005402, -0.000000030
 3.672083300, -0.000008758,  0.000017422,  0.999957563,  0.000000128,  0.000001590, -0.000000008, -0.000018017, -0.000020940,  0.000053688, -0.000000032, -0.000005402, -0.000000030
 3.738666700, -0.000009257,  0.000017112,  0.999973928,  0.000000128,  0.000001818,  0.000000000, -0.000018018, -0.000020940,  0.000053690, -0.000000032, -0.000005402, -0.000000030
 3.805250000, -0.000009702,  0.000016888,  0.999989173,  0.000000128,  0.000002038, -0.000000007, -0.000018023, -0.000020940,  0.000053693, -0.000000032, -0.000005403, -0.000000030
 3.871833300, -0.000009495,  0.000017028,  0.999982852,  0.000000128,  0.000001943, -0.000000003, -0.000018027, -0.000020940,  0.000053698, -0.000000032, -0.000005403, -0.000000030
 3.938416700, -0.000009795,  0.000016840,  0.999992285,  0.000000128,  0.000002073, -0.000000013, -0.000018027, -0.000020940,  0.000053700, -0.000000032, -0.000005403, -0.000000030
 4.005000000, -0.000008905,  0.000017347,  0.999963038,  0.000000128,  0.000001660, -0.000000015, -0.000018028, -0.000020940,  0.000053702, -0.000000032, -0.000005405, -0.000000030
 4.071583300, -0.000009480,  0.000017018,  0.999981438,  0.000000128,  0.000001917, -0.000000008, -0.000018033, -0.000020943,  0.000053707, -0.000000032, -0.000005405, -0.000000030
 4.138166700, -0.000009573,  0.000016965,  0.999986342,  0.000000128,  0.000001983, -0.000000003, -0.000018037, -0.000020943,  0.000053710, -0.000000032, -0.000005407, -0.000000030
 4.204750000, -0.000009837,  0.000016818,  0.999993393,  0.000000128,  0.000002100, -0.000000013, -0.000018037, -0.000020945,  0.000053712, -0.000000032, -0.000005407, -0.000000030
 4.271333300, -0.000009638,  0.000016935,  0.999986567,  0.000000130,  0.000002003, -0.000000012, -0.000018040, -0.000020947,  0.000053715, -0.000000032, -0.000005407, -0.000000030
 4.337916700, -0.000009888,  0.000016787,  0.999995325,  0.000000127,  0.000002132, -0.000000007, -0.000018043, -0.000020950,  0.000053720, -0.000000032, -0.000005408, -0.000000030
 4.404500000, -0.000010245,  0.000016587,  1.000006160,  0.000000130,  0.000002280, -0.000000010, -0.000018047, -0.000020950,  0.000053722, -0.000000032, -0.000005410, -0.000000030
 4.471083300, -0.000009438,  0.000017047,  0.999979600,  0.000000130,  0.000001892, -0.000000010, -0.000018047, -0.000020950,  0.000053722, -0.000000032, -0.000005412, -0.000000030
 4.537666700, -0.000009028,  0.000017283,  0.999966380,  0.000000128,  0.000001713, -0.000000013, -0.000018050, -0.000020950,  0.000053727, -0.000000032, -0.000005412, -0.000000030
 4.604250000, -0.000009117,  0.000017240,  0.999970290,  0.000000132,  0.000001768, -0.000000012, -0.000018053, -0.000020950,  0.000053732, -0.000000032, -0.000005412, -0.000000030
 4.670833300, -0.000009792,  0.000016848,  0.999993488,  0.000000128,  0.000002097, -0.000000012, -0.000018057, -0.000020950,  0.000053733, -0.000000032, -0.000005413, -0.000000030
 4.737416700, -0.000009847,  0.000016803,  0.999993958,  0.000000128,  0.000002112, -0.000000012, -0.000018060, -0.000020950,  0.000053737, -0.000000032, -0.000005413, -0.000000030
 4.804000000, -0.000010133,  0.000016655,  1.000002855,  0.000000130,  0.000002230, -0.000000008, -0.000018060, -0.000020950,  0.000053742, -0.000000032, -0.000005413, -0.000000030
 4.870583300, -0.000009258,  0.000017158,  0.999973527,  0.000000130,  0.000001805, -0.000000002, -0.000018065, -0.000020950,  0.000053742, -0.000000032, -0.000005415, -0.000000030
 4.937166700, -0.000009708,  0.000016902,  0.999988625,  0.000000127,  0.000002033, -0.000000008, -0.000018067, -0.000020952,  0.000053747, -0.000000032, -0.000005417, -0.000000030
 5.003750000, -0.000009417,  0.000017058,  0.999979848,  0.000000130,  0.000001910, -0.000000010, -0.000018067, -0.000020952,  0.000053750, -0.000000032, -0.000005417, -0.000000030
 5.070333300, -0.000009608,  0.000016947,  0.999985837,  0.000000128,  0.000001992, -0.000000008, -0.000018070, -0.000020953,  0.000053753, -0.000000032, -0.000005417, -0.000000030
 5.136916700, -0.000009273,  0.000017147,  0.999975283,  0.000000128,  0.000001842, -0.000000010, -0.000018075, -0.000020953,  0.000053753, -0.000000032, -0.000005417, -0.000000030
 5.203500000, -0.000009500,  0.000017017,  0.999981838,  0.000000130,  0.000001918, -0.000000015, -0.000018077, -0.000020955,  0.000053760, -0.000000032, -0.000005418, -0.000000030
 5.270083300, -0.000009490,  0.000017018,  0.999982547,  0.000000127,  0.000001950, -0.000000022, -0.000018080, -0.000020957,  0.000053762, -0.000000032, -0.000005418, -0.000000030
 5.336666700, -0.000009305,  0.000017142,  0.999976148,  0.000000130,  0.000001857, -0.000000008, -0.000018082, -0.000020957,  0.000053763, -0.000000032, -0.000005420, -0.000000030
 5.403250000, -0.000009747,  0.000016883,  0.999990338,  0.000000127,  0.000002057, -0.000000007, -0.000018085, -0.000020960,  0.000053768, -0.000000032, -0.000005422, -0.000000030
 5.469833300, -0.000009653,  0.000016913,  0.999987440,  0.000000132,  0.000002007, -0.000000007, -0.000018087, -0.000020960,  0.000053770, -0.000000032, -0.000005422, -0.000000030
 5.536416700, -0.000010492,  0.000016448,  1.000014832,  0.000000127,  0.000002397, -0.000000015, -0.000018090, -0.000020960,  0.000053773, -0.000000032, -0.000005422, -0.000000030
 5.603000000, -0.000009853,  0.000016823,  0.999994557,  0.000000130,  0.000002117, -0.000000012, -0.000018092, -0.000020960,  0.000053777, -0.000000032, -0.000005423, -0.000000030
 5.669583300, -0.000009088,  0.000017253,  0.999969003,  0.000000127,  0.000001748, -0.000000013, -0.000018095, -0.000020960,  0.000053780, -0.000000033, -0.000005423, -0.000000030
 5.736166700, -0.000009047,  0.000017270,  0.999967443,  0.000000127,  0.000001733, -0.000000017, -0.000018097, -0.000020960,  0.000053782, -0.000000033, -0.000005425, -0.000000030
 5.802750000, -0.000009128,  0.000017242,  0.999970325,  0.000000128,  0.000001763, -0.000000010, -0.000018098, -0.000020960,  0.000053783, -0.000000033, -0.000005425, -0.000000030
 5.869333300, -0.000008842,  0.000017388,  0.999960898,  0.000000128,  0.000001630, -0.000000008, -0.000018102, -0.000020960,  0.000053787, -0.000000033, -0.000005427, -0.000000030
 5.935916700, -0.000009707,  0.000016878,  0.999989037,  0.000000128,  0.000002032, -0.000000007, -0.000018105, -0.000020962,  0.000053792, -0.000000033, -0.000005427, -0.000000030
 6.002500000, -0.000008753,  0.000017413,  0.999958028,  0.000000128,  0.000001602, -0.000000013, -0.000018107, -0.000020962,  0.000053792, -0.000000033, -0.000005427, -0.000000030
 6.069083300, -0.000009490,  0.000017025,  0.999981503,  0.000000128,  0.000001928, -0.000000008, -0.000018110, -0.000020962,  0.000053798, -0.000000033, -0.000005428, -0.000000030
 6.135666700, -0.000009075,  0.000017273,  0.999969423,  0.000000128,  0.000001758, -0.000000013, -0.000018113, -0.000020962,  0.000053798, -0.000000033, -0.000005428, -0.000000030
 6.202250000, -0.000009390,  0.000017087,  0.999978085,  0.000000127,  0.000001882, -0.000000013, -0.000018115, -0.000020963,  0.000053802, -0.000000033, -0.000005430, -0.000000030
 6.268833300, -0.000009095,  0.000017252,  0.999969522,  0.000000127,  0.000001762, -0.000000013, -0.000018118, -0.000020965,  0.000053805, -0.000000033, -0.000005432, -0.000000030
 6.335416700, -0.000009280,  0.000017142,  0.999975295,  0.000000125,  0.000001850, -0.000000005, -0.000018120, -0.000020967,  0.000053808, -0.000000033, -0.000005432, -0.000000030
 6.402000000, -0.000010767,  0.000016288,  1.000024417,  0.000000128,  0.000002540, -0.000000005, -0.000018125, -0.000020968,  0.000053813, -0.000000033, -0.000005432, -0.000000030
 6.468583300, -0.000009782,  0.000016855,  0.999992228,  0.000000128,  0.000002083, -0.000000003, -0.000018125, -0.000020970,  0.000053815, -0.000000033, -0.000005432, -0.000000030
 6.535166700, -0.000009568,  0.000017000,  0.999984127,  0.000000127,  0.000001957, -0.000000010, -0.000018128, -0.000020970,  0.000053818, -0.000000032, -0.000005432, -0.000000030
 6.601750000, -0.000009933,  0.000016772,  0.999997162,  0.000000130,  0.000002153, -0.000000013, -0.000018132, -0.000020970,  0.000053822, -0.000000032, -0.000005433, -0.000000030
 6.668333300, -0.000009705,  0.000016908,  0.999989262,  0.000000130,  0.000002042, -0.000000008, -0.000018135, -0.000020970,  0.000053822, -0.000000032, -0.000005435, -0.000000030
 6.734916700, -0.000009673,  0.000016913,  0.999987362,  0.000000128,  0.000002012, -0.000000008, -0.000018135, -0.000020970,  0.000053828, -0.000000032, -0.000005435, -0.000000030
 6.801500000, -0.000009358,  0.000017090,  0.999976787,  0.000000127,  0.000001862,  0.000000000, -0.000018138, -0.000020970,  0.000053830, -0.000000032, -0.000005435, -0.000000030
 6.868083300, -0.000009768,  0.000016855,  0.999989660,  0.000000128,  0.000002045, -0.000000003, -0.000018142, -0.000020970,  0.000053832, -0.000000032, -0.000005435, -0.000000030
 6.934666700, -0.000009783,  0.000016842,  0.999992242,  0.000000128,  0.000002082, -0.000000002, -0.000018145, -0.000020970,  0.000053837, -0.000000032, -0.000005438, -0.000000030
 7.001250000, -0.000010683,  0.000016328,  1.000021957,  0.000000130,  0.000002507, -0.000000002, -0.000018147, -0.000020970,  0.000053840, -0.000000032, -0.000005438, -0.000000030
 7.067833300, -0.000009492,  0.000017012,  0.999981265,  0.000000130,  0.000001915,  0.000000002, -0.000018150, -0.000020970,  0.000053840, -0.000000032, -0.000005438, -0.000000030
 7.134416700, -0.000009028,  0.000017302,  0.999966402,  0.000000128,  0.000001700, -0.000000005, -0.000018152, -0.000020972,  0.000053843, -0.000000032, -0.000005440, -0.000000030
 7.201000000, -0.000009485,  0.000017028,  0.999981950,  0.000000128,  0.000001923, -0.000000005, -0.000018155, -0.000020970,  0.000053848, -0.000000032, -0.000005442, -0.000000030
 7.267583300, -0.000010057,  0.000016697,  1.000000738,  0.000000128,  0.000002205, -0.000000010, -0.000018157, -0.000020972,  0.000053852, -0.000000032, -0.000005442, -0.000000030
 7.334166700, -0.000009758,  0.000016865,  0.999990610,  0.000000130,  0.000002055, -0.000000010, -0.000018160, -0.000020972,  0.000053853, -0.000000033, -0.000005442, -0.000000030
 7.400750000, -0.000008852,  0.000017402,  0.999961058,  0.000000128,  0.000001637, -0.000000012, -0.000018162, -0.000020972,  0.000053855, -0.000000033, -0.000005442, -0.000000030
 7.467333300, -0.000009290,  0.000017133,  0.999974510,  0.000000127,  0.000001823, -0.000000005, -0.000018165, -0.000020973,  0.000053858, -0.000000033, -0.000005442, -0.000000030
 7.533916700, -0.000009432,  0.000017047,  0.999980115,  0.000000128,  0.000001905, -0.000000010, -0.000018167, -0.000020977,  0.000053862, -0.000000033, -0.000005443, -0.000000030
 7.600500000, -0.000009150,  0.000017207,  0.999970740,  0.000000128,  0.000001762, -0.000000012, -0.000018170, -0.000020975,  0.000053863, -0.000000033, -0.000005445, -0.000000030
 7.667083300, -0.000009410,  0.000017057,  0.999978975,  0.000000128,  0.000001878, -0.000000007, -0.000018173, -0.000020977,  0.000053868, -0.000000033, -0.000005445, -0.000000030
 7.733666700, -0.000009720,  0.000016883,  0.999989203,  0.000000128,  0.000002027, -0.000000003, -0.000018175, -0.000020980,  0.000053868, -0.000000033, -0.000005445, -0.000000030
 7.800250000, -0.000009328,  0.000017112,  0.999976227,  0.000000128,  0.000001855,  0.000000000, -0.000018177, -0.000020980,  0.000053872, -0.000000033, -0.000005445, -0.000000030
 7.866833300, -0.000009365,  0.000017115,  0.999977697,  0.000000127,  0.000001882, -0.000000007, -0.000018180, -0.000020980,  0.000053875, -0.000000033, -0.000005447, -0.000000030
 7.933416700, -0.000009585,  0.000016988,  0.999985882,  0.000000127,  0.000001995, -0.000000018, -0.000018183, -0.000020980,  0.000053878, -0.000000033, -0.000005447, -0.000000030
 8.000000000, -0.000009993,  0.000016752,  1.000000020,  0.000000127,  0.000002190, -0.000000023, -0.000018185, -0.000020980,  0.000053883, -0.000000033, -0.000005448, -0.000000030
 8.000250000, -0.000010333,  0.000015560,  0.974991580,  0.000000150,  0.000002213, -0.000000053, -0.000017947, -0.000020652,  0.000052852, -0.000000032, -0.000005372, -0.000000030
 8.000500000, -0.000019565,  0.000023725,  0.949993820,  0.000000162, -0.000001167, -0.000000020, -0.000017677, -0.000020262,  0.000051725, -0.000000032, -0.000005277, -0.000000030
 8.000750000, -0.000008753,  0.000011495,  0.925007528,  0.000000108, -0.000000187, -0.000000042, -0.000017383, -0.000019852,  0.000050573, -0.000000030, -0.000005175, -0.000000028
 8.001000000, -0.000014340,  0.000017418,  0.900007433,  0.000000113, -0.000000842, -0.000000012, -0.000017080, -0.000019427,  0.000049405, -0.000000030, -0.000005072, -0.000000028
 8.001250000, -0.000009907,  0.000014703,  0.875006563,  0.000000097,  0.000000497, -0.000000013, -0.000016770, -0.000018998,  0.000048223, -0.000000030, -0.000004967, -0.000000028
 8.001500000, -0.000011370,  0.000016168,  0.850005093,  0.000000095,  0.000000722, -0.000000027, -0.000016452, -0.000018563,  0.000047038, -0.000000030, -0.000004858, -0.000000027
 8.001750000, -0.000009773,  0.000014928,  0.825006212,  0.000000098,  0.000001265, -0.000000027, -0.000016128, -0.000018125,  0.000045840, -0.000000027, -0.000004750, -0.000000027
 8.002000000, -0.000010403,  0.000016142,  0.800001020,  0.000000112,  0.000001178, -0.000000025, -0.000015797, -0.000017682,  0.000044640, -0.000000027, -0.000004642, -0.000000027
 8.002250000, -0.000009470,  0.000014762,  0.775004422,  0.000000108,  0.000001318, -0.000000020, -0.000015465, -0.000017237,  0.000043432, -0.000000027, -0.000004533, -0.000000025
 8.002500000, -0.000012858,  0.000016683,  0.750004757,  0.000000103,  0.000000970, -0.000000012, -0.000015128, -0.000016790,  0.000042220, -0.000000027, -0.000004422, -0.000000025
 8.002750000, -0.000018428,  0.000020618,  0.725004743,  0.000000095,  0.000000105,  0.000000002, -0.000014785, -0.000016340,  0.000041005, -0.000000027, -0.000004312, -0.000000023
 8.003000000, -0.000010615,  0.000014280,  0.700016695,  0.000000095,  0.000001100, -0.000000012, -0.000014442, -0.000015890,  0.000039787, -0.000000025, -0.000004202, -0.000000025
 8.003250000, -0.000022308,  0.000023902,  0.675006512,  0.000000113,  0.000000632, -0.000000028, -0.000014095, -0.000015440,  0.000038565, -0.000000025, -0.000004088, -0.000000023
 8.003500000, -0.000028385,  0.000027527,  0.650021857,  0.000000110,  0.000000925, -0.000000020, -0.000013747, -0.000014987,  0.000037338, -0.000000025, -0.000003978, -0.000000020
 8.003750000, -0.000011833,  0.000016433,  0.625011618,  0.000000112,  0.000001722, -0.000000015, -0.000013388, -0.000014535,  0.000036112, -0.000000023, -0.000003865, -0.000000023
 8.004000000, -0.000019873,  0.000022483,  0.600011183,  0.000000125,  0.000001482, -0.000000013, -0.000013033, -0.000014078,  0.000034880, -0.000000022, -0.000003752, -0.000000020
 8.004250000, -0.000025132,  0.000024655,  0.575016885,  0.000000087,  0.000000545,  0.000000005, -0.000012673, -0.000013623,  0.000033650, -0.000000022, -0.000003640, -0.000000018
 8.004500000, -0.000011582,  0.000014905,  0.550019340,  0.000000093,  0.000001252, -0.000000010, -0.000012310, -0.000013172,  0.000032415, -0.000000020, -0.000003527, -0.000000018
 8.004750000, -0.000019337,  0.000021875,  0.525013677,  0.000000128,  0.000001630, -0.000000038, -0.000011948, -0.000012713,  0.000031177, -0.000000018, -0.000003413, -0.000000018
 8.005000000, -0.000011027,  0.000015855,  0.500010385,  0.000000107,  0.000001857, -0.000000033, -0.000011578, -0.000012255,  0.000029937, -0.000000018, -0.000003298, -0.000000017
 8.005250000, -0.000018710,  0.000022337,  0.475002528,  0.000000137,  0.000001207, -0.000000025, -0.000011210, -0.000011800,  0.000028695, -0.000000018, -0.000003183, -0.000000015
 8.005500000, -0.000011030,  0.000015802,  0.450010837,  0.000000127,  0.000001620, -0.000000022, -0.000010840, -0.000011340,  0.000027453, -0.000000018, -0.000003068, -0.000000017
 8.005750000, -0.000014048,  0.000018993,  0.425000585,  0.000000140,  0.000001527, -0.000000022, -0.000010463, -0.000010878,  0.000026208, -0.000000017, -0.000002955, -0.000000017
 8.006000000, -0.000010772,  0.000016238,  0.400006707,  0.000000117,  0.000001875, -0.000000023, -0.000010090, -0.000010420,  0.000024960, -0.000000015, -0.000002838, -0.000000015
 8.006250000, -0.000011938,  0.000017635,  0.375001173,  0.000000110,  0.000001925, -0.000000012, -0.000009713, -0.000009962,  0.000023713, -0.000000015, -0.000002725, -0.000000012
 8.006500000, -0.000013143,  0.000017905,  0.350006837,  0.000000122,  0.000001897, -0.000000012, -0.000009333, -0.000009498,  0.000022463, -0.000000015, -0.000002608, -0.000000015
 8.006750000, -0.000010260,  0.000016443,  0.325002443,  0.000000117,  0.000001908, -0.000000018, -0.000008950, -0.000009038,  0.000021208, -0.000000013, -0.000002492, -0.000000012
 8.007000000, -0.000010112,  0.000016338,  0.300002352,  0.000000117,  0.000001980, -0.000000023, -0.000008570, -0.000008575,  0.000019957, -0.000000013, -0.000002377, -0.000000010
 8.007250000, -0.000012377,  0.000018013,  0.275001930,  0.000000113,  0.000001822, -0.000000020, -0.000008183, -0.000008112,  0.000018700, -0.000000012, -0.000002260, -0.000000010
 8.007500000, -0.000010155,  0.000016260,  0.250003148,  0.000000108,  0.000001972, -0.000000023, -0.000007802, -0.000007650,  0.000017445, -0.000000012, -0.000002142, -0.000000012
 8.007750000, -0.000009985,  0.000016352,  0.225001740,  0.000000115,  0.000002023, -0.000000023, -0.000007412, -0.000007187,  0.000016185, -0.000000010, -0.000002027, -0.000000008
 8.008000000, -0.000009892,  0.000016317,  0.200001128,  0.000000117,  0.000002052, -0.000000025, -0.000007022, -0.000006722,  0.000014927, -0.000000008, -0.000001908, -0.000000008
 8.008250000, -0.000009955,  0.000016357,  0.175000795,  0.000000118,  0.000002027, -0.000000025, -0.000006630, -0.000006258,  0.000013667, -0.000000008, -0.000001795, -0.000000010
 8.008500000, -0.000009857,  0.000016263,  0.150001298,  0.000000118,  0.000002052, -0.000000025, -0.000006238, -0.000005793,  0.000012405, -0.000000008, -0.000001677, -0.000000012
 8.008750000, -0.000009968,  0.000016413,  0.125000618,  0.000000122,  0.000002010, -0.000000025, -0.000005845, -0.000005330,  0.000011143, -0.000000008, -0.000001558, -0.000000007
 8.009000000, -0.000009970,  0.000016433,  0.100001073,  0.000000120,  0.000002085, -0.000000025, -0.000005448, -0.000004862,  0.000009878, -0.000000008, -0.000001442, -0.000000007
 8.009250000, -0.000009927,  0.000016498,  0.075000530,  0.000000125,  0.000002112, -0.000000023, -0.000005053, -0.000004397,  0.000008613, -0.000000008, -0.000001322, -0.000000008
 8.009500000, -0.000010035,  0.000016745,  0.050000007,  0.000000127,  0.000002187, -0.000000023, -0.000004657, -0.000003927,  0.000007347, -0.000000007, -0.000001205, -0.000000007
 8.009750000, -0.000009993,  0.000016745,  0.025000065,  0.000000127,  0.000002192, -0.000000023, -0.000004255, -0.000003463,  0.000006078, -0.000000005, -0.000001088, -0.000000003
 8.010000000, -0.000009985,  0.000016755, -0.000000067,  0.000000127,  0.000002190, -0.000000023, -0.000003857, -0.000002995,  0.000004810, -0.000000005, -0.000000970, -0.000000003
 8.143166700, -0.000009985,  0.000016757, -0.000000077,  0.000000127,  0.000002190, -0.000000023, -0.000000413, -0.000000688,  0.000000848,  0.000000000, -0.000000222,  0.000000000
 8.276333300, -0.000009985,  0.000016755, -0.000000068,  0.000000127,  0.000002190, -0.000000023, -0.000000313, -0.000000303,  0.000000508,  0.000000000, -0.000000130,  0.000000002
 8.409500000, -0.000009985,  0.000016755, -0.000000067,  0.000000127,  0.000002190, -0.000000023, -0.000000297, -0.000000173,  0.000000412,  0.000000000, -0.000000102,  0.000000000
 8.542666700, -0.000009985,  0.000016755, -0.000000067,  0.000000127,  0.000002190, -0.000000023, -0.000000297, -0.000000127,  0.000000380,  0.000000000, -0.000000092,  0.000000000
 8.675833300, -0.000009985,  0.000016755, -0.000000070,  0.000000127,  0.000002190, -0.000000023, -0.000000302, -0.000000110,  0.000000370,  0.000000000, -0.000000090,  0.000000000
 8.809000000, -0.000009985,  0.000016755, -0.000000065,  0.000000127,  0.000002190, -0.000000023, -0.000000303, -0.000000103,  0.000000368,  0.000000000, -0.000000088,  0.000000000
 8.942166700, -0.000009985,  0.000016755, -0.000000068,  0.000000127,  0.000002190, -0.000000023, -0.000000303, -0.000000093,  0.000000365,  0.000000000, -0.000000088,  0.000000000
 9.075333300, -0.000009985,  0.000016755, -0.000000067,  0.000000127,  0.000002190, -0.000000023, -0.000000307, -0.000000088,  0.000000365,  0.000000000, -0.000000088,  0.000000000
 9.208500000, -0.000009985,  0.000016755, -0.000000067,  0.000000127,  0.000002190, -0.000000023, -0.000000307, -0.000000083,  0.000000362,  0.000000000, -0.000000088,  0.000000000
 9.341666700, -0.000009985,  0.000016755, -0.000000067,  0.000000127,  0.000002190, -0.000000023, -0.000000308, -0.000000083,  0.000000360,  0.000000000, -0.000000088,  0.000000000
 9.474833300, -0.000009985,  0.000016755, -0.000000067,  0.000000127,  0.000002190, -0.000000023, -0.000000308, -0.000000083,  0.000000360,  0.000000000, -0.000000088,  0.000000000
 9.608000000, -0.000009985,  0.000016755, -0.000000067,  0.000000127,  0.000002190, -0.000000023, -0.000000312, -0.000000075,  0.000000358,  0.000000000, -0.000000088,  0.000000000
 9.741166700, -0.000009985,  0.000016755, -0.000000067,  0.000000127,  0.000002190, -0.000000023, -0.000000312, -0.000000073,  0.000000358,  0.000000000, -0.000000088,  0.000000000
 9.874333300, -0.000009985,  0.000016755, -0.000000067,  0.000000127,  0.000002190, -0.000000023, -0.000000312, -0.000000073,  0.000000358,  0.000000000, -0.000000088,  0.000000000
10.007500000, -0.000009985,  0.000016755, -0.000000068,  0.000000127,  0.000002190, -0.000000023, -0.000000312, -0.000000073,  0.000000357,  0.000000000, -0.000000088,  0.000000000
10.140667000, -0.000009985,  0.000016755, -0.000000067,  0.000000127,  0.000002190, -0.000000023, -0.000000312, -0.000000073,  0.000000355,  0.000000000, -0.000000088,  0.000000000
10.273833000, -0.000009985,  0.000016757, -0.000000070,  0.000000127,  0.000002190, -0.000000023, -0.000000312, -0.000000067,  0.000000355,  0.000000000, -0.000000088,  0.000000000
10.407000000, -0.000009985,  0.000016755, -0.000000068,  0.000000127,  0.000002190, -0.000000023, -0.000000313, -0.000000065,  0.000000355,  0.000000000, -0.000000088,  0.000000000
10.540167000, -0.000009985,  0.000016755, -0.000000067,  0.000000127,  0.000002190, -0.000000023, -0.000000313, -0.000000063,  0.000000352,  0.000000000, -0.000000087,  0.000000000
10.673333000, -0.000009985,  0.000016755, -0.000000067,  0.000000127,  0.000002190, -0.000000023, -0.000000313, -0.000000063,  0.000000350,  0.000000000, -0.000000087,  0.000000000
10.806500000, -0.000009985,  0.000016755, -0.000000067,  0.000000127,  0.000002190, -0.000000023, -0.000000313, -0.000000063,  0.000000350,  0.000000000, -0.000000085,  0.000000000
10.939667000, -0.000009985,  0.000016755, -0.000000067,  0.000000127,  0.000002190, -0.000000023, -0.000000313, -0.000000063,  0.000000350,  0.000000000, -0.000000085,  0.000000000
11.072833000, -0.000009985,  0.000016755, -0.000000067,  0.000000127,  0.000002190, -0.000000023, -0.000000313, -0.000000063,  0.000000348,  0.000000000, -0.000000085,  0.000000000
11.206000000, -0.000009985,  0.000016755, -0.000000065,  0.000000127,  0.000002190, -0.000000023, -0.000000313, -0.000000062,  0.000000348,  0.000000000, -0.000000085,  0.000000000
11.339167000, -0.000009983,  0.000016755, -0.000000067,  0.000000127,  0.000002190, -0.000000023, -0.000000313, -0.000000057,  0.000000348,  0.000000000, -0.000000085,  0.000000000
11.472333000, -0.000009985,  0.000016755, -0.000000067,  0.000000127,  0.000002190, -0.000000023, -0.000000313, -0.000000055,  0.000000348,  0.000000000, -0.000000085,  0.000000000
11.605500000, -0.000009985,  0.000016755, -0.000000067,  0.000000127,  0.000002190, -0.000000023, -0.000000313, -0.000000055,  0.000000347,  0.000000000, -0.000000085,  0.000000000
11.738667000, -0.000009985,  0.000016755, -0.000000067,  0.000000127,  0.000002190, -0.000000023, -0.000000313, -0.000000055,  0.000000345,  0.000000000, -0.000000085,  0.000000000
11.871833000, -0.000009985,  0.000016755, -0.000000067,  0.000000127,  0.000002190, -0.000000023, -0.000000313, -0.000000053,  0.000000345,  0.000000000, -0.000000083,  0.000000000
12.005000000, -0.000009985,  0.000016755, -0.000000067,  0.000000127,  0.000002190, -0.000000023, -0.000000313, -0.000000053,  0.000000342,  0.000000000, -0.000000083,  0.000000000
12.138167000, -0.000009985,  0.000016755, -0.000000067,  0.000000127,  0.000002190, -0.000000023, -0.000000312, -0.000000053,  0.000000342,  0.000000000, -0.000000082,  0.000000000
12.271333000, -0.000009985,  0.000016755, -0.000000067,  0.000000127,  0.000002190, -0.000000023, -0.000000312, -0.000000053,  0.000000340,  0.000000000, -0.000000082,  0.000000000
12.404500000, -0.000009985,  0.000016755, -0.000000067,  0.000000127,  0.000002190, -0.000000023, -0.000000312, -0.000000053,  0.000000340,  0.000000000, -0.000000082,  0.000000000
12.537667000, -0.000009985,  0.000016755, -0.000000067,  0.000000127,  0.000002190, -0.000000023, -0.000000312, -0.000000053,  0.000000338,  0.000000000, -0.000000082,  0.000000000
12.670833000, -0.000009985,  0.000016755, -0.000000067,  0.000000127,  0.000002190, -0.000000023, -0.000000312, -0.000000053,  0.000000338,  0.000000000, -0.000000082,  0.000000000
12.804000000, -0.000009985,  0.000016755, -0.000000067,  0.000000127,  0.000002190, -0.000000023, -0.000000312, -0.000000050,  0.000000338,  0.000000000, -0.000000082,  0.000000000
12.937167000, -0.000009985,  0.000016755, -0.000000067,  0.000000127,  0.000002190, -0.000000023, -0.000000312, -0.000000047,  0.000000338,  0.000000000, -0.000000082,  0.000000000
13.070333000, -0.000009985,  0.000016755, -0.000000067,  0.000000127,  0.000002190, -0.000000023, -0.000000312, -0.000000045,  0.000000338,  0.000000000, -0.000000082,  0.000000000
13.203500000, -0.000009985,  0.000016755, -0.000000067,  0.000000127,  0.000002190, -0.000000023, -0.000000312, -0.000000045,  0.000000337,  0.000000000, -0.000000082,  0.000000000
13.336667000, -0.000009985,  0.000016755, -0.000000067,  0.000000127,  0.000002190, -0.000000023, -0.000000312, -0.000000045,  0.000000335,  0.000000000, -0.000000082,  0.000000000
13.469833000, -0.000009985,  0.000016755, -0.000000067,  0.000000127,  0.000002190, -0.000000023, -0.000000312, -0.000000045,  0.000000335,  0.000000000, -0.000000082,  0.000000000
13.603000000, -0.000009985,  0.000016755, -0.000000067,  0.000000127,  0.000002190, -0.000000023, -0.000000310, -0.000000043,  0.000000332,  0.000000000, -0.000000080,  0.000000000
13.736167000, -0.000009985,  0.000016755, -0.000000067,  0.000000127,  0.000002190, -0.000000023, -0.000000308, -0.000000043,  0.000000332,  0.000000000, -0.000000080,  0.000000000
13.869333000, -0.000009985,  0.000016755, -0.000000067,  0.000000127,  0.000002190, -0.000000023, -0.000000308, -0.000000043,  0.000000330,  0.000000000, -0.000000080,  0.000000000
14.002500000, -0.000009985,  0.000016755, -0.000000067,  0.000000127,  0.000002190, -0.000000023, -0.000000308, -0.000000043,  0.000000330,  0.000000000, -0.000000080,  0.000000000
14.135667000, -0.000009985,  0.000016755, -0.000000067,  0.000000127,  0.000002190, -0.000000023, -0.000000307, -0.000000043,  0.000000328,  0.000000000, -0.000000080,  0.000000000
14.268833000, -0.000009985,  0.000016755, -0.000000067,  0.000000127,  0.000002190, -0.000000023, -0.000000307, -0.000000043,  0.000000328,  0.000000000, -0.000000080,  0.000000000
14.402000000, -0.000009985,  0.000016755, -0.000000067,  0.000000127,  0.000002190, -0.000000023, -0.000000307, -0.000000043,  0.000000328,  0.000000000, -0.000000080,  0.000000000
14.535167000, -0.000009985,  0.000016755, -0.000000068,  0.000000127,  0.000002190, -0.000000023, -0.000000307, -0.000000043,  0.000000328,  0.000000000, -0.000000080,  0.000000000
14.668333000, -0.000009985,  0.000016755, -0.000000067,  0.000000127,  0.000002190, -0.000000023, -0.000000307, -0.000000043,  0.000000328,  0.000000000, -0.000000080,  0.000000000
14.801500000, -0.000009985,  0.000016755, -0.000000067,  0.000000127,  0.000002190, -0.000000023, -0.000000307, -0.000000042,  0.000000328,  0.000000000, -0.000000080,  0.000000000
14.934667000, -0.000009985,  0.000016755, -0.000000067,  0.000000127,  0.000002190, -0.000000023, -0.000000307, -0.000000040,  0.000000325,  0.000000000, -0.000000080,  0.000000000
15.067833000, -0.000009985,  0.000016755, -0.000000067,  0.000000127,  0.000002190, -0.000000023, -0.000000305, -0.000000037,  0.000000325,  0.000000000, -0.000000080,  0.000000000
15.201000000, -0.000009985,  0.000016755, -0.000000067,  0.000000127,  0.000002190, -0.000000023, -0.000000305, -0.000000035,  0.000000323,  0.000000000, -0.000000080,  0.000000000
15.334167000, -0.000009985,  0.000016755, -0.000000067,  0.000000127,  0.000002190, -0.000000023, -0.000000305, -0.000000035,  0.000000322,  0.000000000, -0.000000078,  0.000000000
15.467333000, -0.000009985,  0.000016755, -0.000000067,  0.000000127,  0.000002190, -0.000000023, -0.000000303, -0.000000035,  0.000000320,  0.000000000, -0.000000078,  0.000000000
15.600500000, -0.000009985,  0.000016755, -0.000000067,  0.000000127,  0.000002190, -0.000000023, -0.000000303, -0.000000035,  0.000000320,  0.000000000, -0.000000078,  0.000000000
15.733667000, -0.000009985,  0.000016755, -0.000000067,  0.000000127,  0.000002190, -0.000000023, -0.000000303, -0.000000035,  0.000000318,  0.000000000, -0.000000078,  0.000000000
15.866833000, -0.000009985,  0.000016755, -0.000000067,  0.000000127,  0.000002190, -0.000000023, -0.000000303, -0.000000035,  0.000000318,  0.000000000, -0.000000078,  0.000000000
16.000000000, -0.000009985,  0.000016755, -0.000000067,  0.000000127,  0.000002190, -0.000000023, -0.000000303, -0.000000035,  0.000000318,  0.000000000, -0.000000078,  0.000000000
