Time (m)    , Stress_xx (MPa), Stress_yy (MPa), Stress_zz (MPa), Stress_xy (MPa), Stress_xz (MPa), Stress_yz (MPa), Strain_xx   , Strain_yy   , Strain_zz   , Strain_xy   , Strain_xz   , Strain_yz   
  0.00000000,   0.00000000,   0.00000000,   0.00000000,   0.00000000,   0.00000000,   0.00000000,   0.00000000,   0.00000000,   0.00000000,   0.00000000,   0.00000000,   0.00000000
  0.00050000,  -0.00000032,   0.00000012,   0.05000146,   0.00000000,   0.00000002,   0.00000000,  -0.00000050,  -0.00000070,   0.00000210,  -0.00000000,  -0.00000018,  -0.00000001
  0.00100000,   0.00000012,   0.00000003,   0.09999999,   0.00000000,   0.00000000,   0.00000000,  -0.00000108,  -0.00000152,   0.00000435,  -0.00000000,  -0.00000039,  -0.00000002
  0.00150000,  -0.00000034,  -0.00000014,   0.15000427,  -0.00000000,   0.00000021,  -0.00000000,  -0.00000169,  -0.00000236,   0.00000665,  -0.00000000,  -0.00000061,  -0.00000003
  0.00200000,   0.00000051,   0.00000194,   0.20000314,  -0.00000001,   0.00000031,   0.00000000,  -0.00000232,  -0.00000322,   0.00000897,  -0.00000000,  -0.00000083,  -0.00000004
  0.00250000,   0.00000009,   0.00000180,   0.25000286,  -0.00000001,   0.00000020,   0.00000000,  -0.00000297,  -0.00000409,   0.00001132,  -0.00000000,  -0.00000106,  -0.00000005
  0.00300000,   0.00000004,   0.00000144,   0.30000192,  -0.00000000,   0.00000016,   0.00000000,  -0.00000364,  -0.00000496,   0.00001368,  -0.00000000,  -0.00000128,  -0.00000006
  0.00350000,  -0.00000005,   0.00000124,   0.35000174,  -0.00000000,   0.00000014,   0.00000000,  -0.00000432,  -0.00000584,   0.00001605,  -0.00000000,  -0.00000151,  -0.00000007
  0.00400000,  -0.00000007,   0.00000109,   0.40000145,  -0.00000000,   0.00000013,   0.00000000,  -0.00000500,  -0.00000672,   0.00001843,  -0.00000000,  -0.00000174,  -0.00000008
  0.00450000,   0.00000450,  -0.00000125,   0.44999717,  -0.00000002,   0.00000172,  -0.00000003,  -0.00000570,  -0.00000761,   0.00002082,  -0.00000000,  -0.00000197,  -0.00000009
  0.00500000,  -0.00000014,   0.00000155,   0.49999314,  -0.00000000,   0.00000088,  -0.00000003,  -0.00000641,  -0.00000850,   0.00002322,  -0.00000000,  -0.00000221,  -0.00000010
  0.00550000,   0.00000427,  -0.00000257,   0.55000466,   0.00000000,   0.00000177,  -0.00000004,  -0.00000713,  -0.00000940,   0.00002563,  -0.00000000,  -0.00000244,  -0.00000011
  0.00600000,   0.00000014,   0.00000114,   0.59999362,   0.00000000,   0.00000064,  -0.00000002,  -0.00000785,  -0.00001029,   0.00002805,  -0.00000000,  -0.00000268,  -0.00000012
  0.00650000,   0.00000003,   0.00000064,   0.64999789,  -0.00000001,   0.00000051,  -0.00000001,  -0.00000858,  -0.00001119,   0.00003047,  -0.00000000,  -0.00000291,  -0.00000013
  0.00700000,   0.00000005,   0.00000034,   0.69999973,  -0.00000001,   0.00000046,  -0.00000001,  -0.00000932,  -0.00001209,   0.00003290,  -0.00000000,  -0.00000315,  -0.00000014
  0.00750000,  -0.00000021,   0.00000061,   0.74999947,  -0.00000001,   0.00000046,  -0.00000001,  -0.00001007,  -0.00001299,   0.00003533,  -0.00000000,  -0.00000339,  -0.00000015
  0.00800000,   0.00000276,  -0.00000091,   0.79999889,  -0.00000001,   0.00000116,  -0.00000002,  -0.00001082,  -0.00001389,   0.00003777,  -0.00000000,  -0.00000363,  -0.00000016
  0.00850000,   0.00000005,   0.00000110,   0.84999381,   0.00000000,   0.00000054,  -0.00000002,  -0.00001158,  -0.00001480,   0.00004021,  -0.00000000,  -0.00000387,  -0.00000017
  0.00900000,   0.00000241,  -0.00000133,   0.90000281,   0.00000000,   0.00000102,  -0.00000003,  -0.00001234,  -0.00001570,   0.00004266,  -0.00000000,  -0.00000411,  -0.00000018
  0.00950000,   0.00000013,   0.00000085,   0.94999485,  -0.00000000,   0.00000039,  -0.00000001,  -0.00001311,  -0.00001661,   0.00004511,  -0.00000000,  -0.00000435,  -0.00000019
  0.01000000,   0.00002498,  -0.00001494,   0.99999855,  -0.00000002,   0.00000256,  -0.00000007,  -0.00001388,  -0.00001752,   0.00004757,  -0.00000001,  -0.00000459,  -0.00000020
  0.07658333,   0.00002010,  -0.00001852,   1.00004590,   0.00000002,   0.00000325,  -0.00000007,  -0.00001702,  -0.00001932,   0.00005097,  -0.00000001,  -0.00000522,  -0.00000022
  0.14316667,   0.00002367,  -0.00001590,   0.99999831,  -0.00000001,   0.00000257,  -0.00000007,  -0.00001722,  -0.00001982,   0.00005146,  -0.00000001,  -0.00000536,  -0.00000022
  0.20975000,   0.00002233,  -0.00001435,   1.00000680,  -0.00000002,   0.00000417,  -0.00000011,  -0.00001728,  -0.00002007,   0.00005168,  -0.00000001,  -0.00000542,  -0.00000023
  0.27633333,   0.00002528,  -0.00001592,   0.99998188,  -0.00000001,   0.00000173,  -0.00000008,  -0.00001730,  -0.00002019,   0.00005178,  -0.00000001,  -0.00000545,  -0.00000023
  0.34291667,   0.00002156,  -0.00001129,   0.99999044,  -0.00000002,   0.00000390,  -0.00000011,  -0.00001730,  -0.00002026,   0.00005182,  -0.00000001,  -0.00000546,  -0.00000023
  0.40950000,   0.00002886,  -0.00001938,   0.99998582,  -0.00000003,   0.00000030,  -0.00000003,  -0.00001730,  -0.00002029,   0.00005184,  -0.00000001,  -0.00000547,  -0.00000023
  0.47608333,   0.00002744,  -0.00001886,   1.00001330,  -0.00000003,   0.00000077,  -0.00000003,  -0.00001731,  -0.00002031,   0.00005186,  -0.00000001,  -0.00000547,  -0.00000023
  0.54266667,   0.00002639,  -0.00001724,   1.00001380,  -0.00000003,   0.00000157,  -0.00000006,  -0.00001731,  -0.00002032,   0.00005187,  -0.00000001,  -0.00000547,  -0.00000023
  0.60925000,   0.00002769,  -0.00002236,   1.00004820,  -0.00000003,   0.00000151,  -0.00000007,  -0.00001731,  -0.00002032,   0.00005187,  -0.00000001,  -0.00000547,  -0.00000023
  0.67583333,   0.00003067,  -0.00002003,   0.99995422,  -0.00000003,   0.00000044,  -0.00000006,  -0.00001731,  -0.00002033,   0.00005187,  -0.00000001,  -0.00000547,  -0.00000023
  0.74241667,   0.00002942,  -0.00001980,   0.99998213,  -0.00000003,   0.00000106,  -0.00000006,  -0.00001731,  -0.00002033,   0.00005188,  -0.00000001,  -0.00000547,  -0.00000023
  0.80900000,   0.00002492,  -0.00002024,   1.00009480,  -0.00000002,   0.00000304,  -0.00000008,  -0.00001731,  -0.00002034,   0.00005189,  -0.00000001,  -0.00000547,  -0.00000023
  0.87558333,   0.00002503,  -0.00001538,   1.00000650,  -0.00000002,   0.00000256,  -0.00000007,  -0.00001731,  -0.00002034,   0.00005189,  -0.00000001,  -0.00000548,  -0.00000023
  0.94216667,   0.00002545,  -0.00001434,   0.99997570,  -0.00000002,   0.00000235,  -0.00000006,  -0.00001731,  -0.00002034,   0.00005189,  -0.00000001,  -0.00000548,  -0.00000023
  1.00875000,   0.00002595,  -0.00001433,   0.99996569,  -0.00000002,   0.00000217,  -0.00000006,  -0.00001732,  -0.00002034,   0.00005189,  -0.00000001,  -0.00000548,  -0.00000023
  1.07533330,   0.00002720,  -0.00001429,   0.99993774,  -0.00000001,   0.00000173,  -0.00000006,  -0.00001732,  -0.00002034,   0.00005189,  -0.00000001,  -0.00000548,  -0.00000023
  1.14191670,   0.00002494,  -0.00001553,   1.00000800,  -0.00000002,   0.00000269,  -0.00000006,  -0.00001732,  -0.00002035,   0.00005190,  -0.00000001,  -0.00000548,  -0.00000023
  1.20850000,   0.00002503,  -0.00001504,   0.99999879,  -0.00000002,   0.00000256,  -0.00000007,  -0.00001732,  -0.00002035,   0.00005190,  -0.00000001,  -0.00000548,  -0.00000023
  1.27508330,   0.00002469,  -0.00001518,   1.00000690,  -0.00000002,   0.00000267,  -0.00000007,  -0.00001732,  -0.00002035,   0.00005191,  -0.00000001,  -0.00000548,  -0.00000023
  1.34166670,   0.00002490,  -0.00001528,   1.00000320,  -0.00000002,   0.00000262,  -0.00000007,  -0.00001733,  -0.00002035,   0.00005191,  -0.00000001,  -0.00000548,  -0.00000023
  1.40825000,   0.00002507,  -0.00001505,   0.99999704,  -0.00000002,   0.00000253,  -0.00000007,  -0.00001733,  -0.00002036,   0.00005191,  -0.00000001,  -0.00000548,  -0.00000023
  1.47483330,   0.00002474,  -0.00001518,   1.00000710,  -0.00000002,   0.00000268,  -0.00000007,  -0.00001733,  -0.00002036,   0.00005192,  -0.00000001,  -0.00000548,  -0.00000023
  1.54141670,   0.00002491,  -0.00001523,   1.00000410,  -0.00000002,   0.00000264,  -0.00000007,  -0.00001733,  -0.00002036,   0.00005192,  -0.00000001,  -0.00000548,  -0.00000023
  1.60800000,   0.00002486,  -0.00001541,   1.00000890,  -0.00000002,   0.00000271,  -0.00000006,  -0.00001733,  -0.00002036,   0.00005192,  -0.00000001,  -0.00000548,  -0.00000023
  1.67458330,   0.00002532,  -0.00001494,   0.99999165,  -0.00000002,   0.00000246,  -0.00000007,  -0.00001734,  -0.00002036,   0.00005192,  -0.00000001,  -0.00000548,  -0.00000023
  1.74116670,   0.00002499,  -0.00001501,   0.99999937,  -0.00000003,   0.00000257,  -0.00000007,  -0.00001734,  -0.00002036,   0.00005193,  -0.00000001,  -0.00000548,  -0.00000023
  1.80775000,   0.00002668,  -0.00001372,   0.99994188,  -0.00000003,   0.00000177,  -0.00000008,  -0.00001734,  -0.00002036,   0.00005193,  -0.00000001,  -0.00000549,  -0.00000023
  1.87433330,   0.00002557,  -0.00001452,   0.99997897,  -0.00000002,   0.00000230,  -0.00000006,  -0.00001734,  -0.00002036,   0.00005193,  -0.00000001,  -0.00000549,  -0.00000023
  1.94091670,   0.00002354,  -0.00001595,   1.00005120,  -0.00000003,   0.00000334,  -0.00000006,  -0.00001735,  -0.00002037,   0.00005194,  -0.00000001,  -0.00000549,  -0.00000023
  2.00750000,   0.00002667,  -0.00001414,   0.99994975,  -0.00000003,   0.00000190,  -0.00000007,  -0.00001735,  -0.00002037,   0.00005194,  -0.00000001,  -0.00000549,  -0.00000023
  2.07408330,   0.00002548,  -0.00001483,   0.99998851,  -0.00000002,   0.00000244,  -0.00000008,  -0.00001735,  -0.00002037,   0.00005194,  -0.00000001,  -0.00000549,  -0.00000023
  2.14066670,   0.00002568,  -0.00001465,   0.99997846,  -0.00000002,   0.00000228,  -0.00000006,  -0.00001735,  -0.00002037,   0.00005195,  -0.00000001,  -0.00000549,  -0.00000023
  2.20725000,   0.00002497,  -0.00001499,   0.99999966,  -0.00000002,   0.00000257,  -0.00000007,  -0.00001735,  -0.00002037,   0.00005195,  -0.00000001,  -0.00000549,  -0.00000023
  2.27383330,   0.00002506,  -0.00001492,   0.99999594,  -0.00000002,   0.00000252,  -0.00000007,  -0.00001736,  -0.00002037,   0.00005195,  -0.00000001,  -0.00000549,  -0.00000023
  2.34041670,   0.00002379,  -0.00001551,   1.00004120,  -0.00000002,   0.00000318,  -0.00000009,  -0.00001736,  -0.00002037,   0.00005196,  -0.00000001,  -0.00000549,  -0.00000023
  2.40700000,   0.00002519,  -0.00001479,   0.99999212,  -0.00000002,   0.00000247,  -0.00000007,  -0.00001736,  -0.00002037,   0.00005196,  -0.00000001,  -0.00000549,  -0.00000023
  2.47358330,   0.00002474,  -0.00001512,   1.00000610,  -0.00000002,   0.00000267,  -0.00000007,  -0.00001736,  -0.00002038,   0.00005196,  -0.00000001,  -0.00000549,  -0.00000023
  2.54016670,   0.00002508,  -0.00001495,   0.99999656,  -0.00000002,   0.00000253,  -0.00000007,  -0.00001737,  -0.00002038,   0.00005196,  -0.00000001,  -0.00000549,  -0.00000023
  2.60675000,   0.00002249,  -0.00001620,   1.00007750,  -0.00000003,   0.00000369,  -0.00000006,  -0.00001737,  -0.00002038,   0.00005197,  -0.00000001,  -0.00000549,  -0.00000023
  2.67333330,   0.00002490,  -0.00001493,   1.00000080,  -0.00000002,   0.00000260,  -0.00000007,  -0.00001737,  -0.00002038,   0.00005197,  -0.00000001,  -0.00000550,  -0.00000023
  2.73991670,   0.00002512,  -0.00001486,   0.99999455,  -0.00000002,   0.00000250,  -0.00000007,  -0.00001737,  -0.00002038,   0.00005197,  -0.00000001,  -0.00000550,  -0.00000023
  2.80650000,   0.00002571,  -0.00001462,   0.99997724,  -0.00000002,   0.00000225,  -0.00000007,  -0.00001738,  -0.00002038,   0.00005198,  -0.00000001,  -0.00000550,  -0.00000023
  2.87308330,   0.00002607,  -0.00001448,   0.99996678,  -0.00000003,   0.00000210,  -0.00000007,  -0.00001738,  -0.00002038,   0.00005198,  -0.00000001,  -0.00000550,  -0.00000023
  2.93966670,   0.00002484,  -0.00001509,   1.00000560,  -0.00000002,   0.00000265,  -0.00000007,  -0.00001738,  -0.00002038,   0.00005198,  -0.00000001,  -0.00000550,  -0.00000023
  3.00625000,   0.00002502,  -0.00001493,   0.99999796,  -0.00000002,   0.00000255,  -0.00000007,  -0.00001738,  -0.00002038,   0.00005199,  -0.00000001,  -0.00000550,  -0.00000023
  3.07283330,   0.00002484,  -0.00001501,   1.00000290,  -0.00000002,   0.00000262,  -0.00000007,  -0.00001739,  -0.00002038,   0.00005199,  -0.00000001,  -0.00000550,  -0.00000023
  3.13941670,   0.00002692,  -0.00001379,   0.99993319,  -0.00000003,   0.00000166,  -0.00000007,  -0.00001739,  -0.00002038,   0.00005199,  -0.00000001,  -0.00000550,  -0.00000023
  3.20600000,   0.00002534,  -0.00001470,   0.99998705,  -0.00000002,   0.00000240,  -0.00000007,  -0.00001739,  -0.00002038,   0.00005199,  -0.00000001,  -0.00000550,  -0.00000023
  3.27258330,   0.00002620,  -0.00001425,   0.99996095,  -0.00000002,   0.00000204,  -0.00000007,  -0.00001739,  -0.00002039,   0.00005200,  -0.00000001,  -0.00000550,  -0.00000023
  3.33916670,   0.00002524,  -0.00001482,   0.99999120,  -0.00000002,   0.00000246,  -0.00000008,  -0.00001740,  -0.00002039,   0.00005200,  -0.00000001,  -0.00000550,  -0.00000023
  3.40575000,   0.00002343,  -0.00001587,   1.00005380,  -0.00000002,   0.00000336,  -0.00000010,  -0.00001740,  -0.00002039,   0.00005201,  -0.00000001,  -0.00000551,  -0.00000023
  3.47233330,   0.00002497,  -0.00001494,   0.99999946,  -0.00000002,   0.00000257,  -0.00000007,  -0.00001740,  -0.00002039,   0.00005201,  -0.00000001,  -0.00000551,  -0.00000023
  3.53891670,   0.00002475,  -0.00001506,   1.00000430,  -0.00000002,   0.00000263,  -0.00000007,  -0.00001740,  -0.00002039,   0.00005201,  -0.00000001,  -0.00000551,  -0.00000023
  3.60550000,   0.00002516,  -0.00001485,   0.99999201,  -0.00000002,   0.00000246,  -0.00000007,  -0.00001741,  -0.00002039,   0.00005201,  -0.00000001,  -0.00000551,  -0.00000023
  3.67208330,   0.00002537,  -0.00001476,   0.99998528,  -0.00000002,   0.00000237,  -0.00000007,  -0.00001741,  -0.00002039,   0.00005202,  -0.00000001,  -0.00000551,  -0.00000023
  3.73866670,   0.00002595,  -0.00001447,   0.99996559,  -0.00000002,   0.00000209,  -0.00000007,  -0.00001741,  -0.00002039,   0.00005202,  -0.00000001,  -0.00000551,  -0.00000023
  3.80525000,   0.00002490,  -0.00001503,   1.00000160,  -0.00000002,   0.00000259,  -0.00000007,  -0.00001741,  -0.00002039,   0.00005202,  -0.00000001,  -0.00000551,  -0.00000023
  3.87183330,   0.00002480,  -0.00001507,   1.00000570,  -0.00000002,   0.00000265,  -0.00000007,  -0.00001742,  -0.00002039,   0.00005203,  -0.00000001,  -0.00000551,  -0.00000023
  3.93841670,   0.00002423,  -0.00001538,   1.00002540,  -0.00000002,   0.00000293,  -0.00000008,  -0.00001742,  -0.00002039,   0.00005203,  -0.00000001,  -0.00000551,  -0.00000023
  4.00500000,   0.00002504,  -0.00001492,   0.99999652,  -0.00000002,   0.00000253,  -0.00000007,  -0.00001742,  -0.00002039,   0.00005203,  -0.00000001,  -0.00000551,  -0.00000023
  4.07158330,   0.00002491,  -0.00001499,   1.00000020,  -0.00000002,   0.00000258,  -0.00000007,  -0.00001742,  -0.00002040,   0.00005203,  -0.00000001,  -0.00000551,  -0.00000023
  4.13816670,   0.00002511,  -0.00001488,   0.99999436,  -0.00000002,   0.00000249,  -0.00000007,  -0.00001743,  -0.00002040,   0.00005204,  -0.00000001,  -0.00000552,  -0.00000023
  4.20475000,   0.00002288,  -0.00001611,   1.00006760,  -0.00000002,   0.00000354,  -0.00000008,  -0.00001743,  -0.00002040,   0.00005204,  -0.00000001,  -0.00000552,  -0.00000023
  4.27133330,   0.00002494,  -0.00001496,   0.99999984,  -0.00000002,   0.00000258,  -0.00000007,  -0.00001743,  -0.00002040,   0.00005204,  -0.00000001,  -0.00000552,  -0.00000023
  4.33791670,   0.00002536,  -0.00001473,   0.99998340,  -0.00000002,   0.00000233,  -0.00000006,  -0.00001743,  -0.00002040,   0.00005204,  -0.00000001,  -0.00000552,  -0.00000023
  4.40450000,   0.00002465,  -0.00001514,   1.00000980,  -0.00000002,   0.00000271,  -0.00000007,  -0.00001744,  -0.00002040,   0.00005205,  -0.00000001,  -0.00000552,  -0.00000023
  4.47108330,   0.00002502,  -0.00001494,   0.99999797,  -0.00000002,   0.00000255,  -0.00000007,  -0.00001744,  -0.00002040,   0.00005205,  -0.00000001,  -0.00000552,  -0.00000023
  4.53766670,   0.00002546,  -0.00001469,   0.99998310,  -0.00000002,   0.00000233,  -0.00000007,  -0.00001744,  -0.00002040,   0.00005205,  -0.00000001,  -0.00000552,  -0.00000023
  4.60425000,   0.00002627,  -0.00001421,   0.99995612,  -0.00000002,   0.00000195,  -0.00000007,  -0.00001744,  -0.00002040,   0.00005206,  -0.00000001,  -0.00000552,  -0.00000023
  4.67083330,   0.00002294,  -0.00001614,   1.00006550,  -0.00000002,   0.00000349,  -0.00000007,  -0.00001745,  -0.00002040,   0.00005206,  -0.00000001,  -0.00000552,  -0.00000023
  4.73741670,   0.00002470,  -0.00001517,   1.00000930,  -0.00000002,   0.00000272,  -0.00000007,  -0.00001745,  -0.00002040,   0.00005206,  -0.00000001,  -0.00000552,  -0.00000023
  4.80400000,   0.00002303,  -0.00001610,   1.00006120,  -0.00000002,   0.00000344,  -0.00000007,  -0.00001745,  -0.00002040,   0.00005207,  -0.00000001,  -0.00000552,  -0.00000023
  4.87058330,   0.00002470,  -0.00001514,   1.00000780,  -0.00000002,   0.00000269,  -0.00000007,  -0.00001745,  -0.00002040,   0.00005207,  -0.00000001,  -0.00000552,  -0.00000023
  4.93716670,   0.00002690,  -0.00001385,   0.99993314,  -0.00000002,   0.00000164,  -0.00000007,  -0.00001746,  -0.00002040,   0.00005207,  -0.00000001,  -0.00000553,  -0.00000023
  5.00375000,   0.00002466,  -0.00001515,   1.00000750,  -0.00000002,   0.00000267,  -0.00000007,  -0.00001746,  -0.00002040,   0.00005208,  -0.00000001,  -0.00000553,  -0.00000023
  5.07033330,   0.00002464,  -0.00001519,   1.00001330,  -0.00000002,   0.00000275,  -0.00000006,  -0.00001746,  -0.00002041,   0.00005208,  -0.00000001,  -0.00000553,  -0.00000023
  5.13691670,   0.00002608,  -0.00001431,   0.99996200,  -0.00000002,   0.00000204,  -0.00000007,  -0.00001746,  -0.00002041,   0.00005208,  -0.00000001,  -0.00000553,  -0.00000023
  5.20350000,   0.00002512,  -0.00001485,   0.99999388,  -0.00000002,   0.00000249,  -0.00000007,  -0.00001747,  -0.00002041,   0.00005208,  -0.00000001,  -0.00000553,  -0.00000023
  5.27008330,   0.00002515,  -0.00001485,   0.99999344,  -0.00000002,   0.00000248,  -0.00000007,  -0.00001747,  -0.00002041,   0.00005209,  -0.00000001,  -0.00000553,  -0.00000023
  5.33666670,   0.00002487,  -0.00001501,   1.00000200,  -0.00000002,   0.00000260,  -0.00000007,  -0.00001747,  -0.00002041,   0.00005209,  -0.00000001,  -0.00000553,  -0.00000023
  5.40325000,   0.00002745,  -0.00001349,   0.99991644,  -0.00000002,   0.00000140,  -0.00000007,  -0.00001747,  -0.00002041,   0.00005209,  -0.00000001,  -0.00000553,  -0.00000023
  5.46983330,   0.00002520,  -0.00001478,   0.99999182,  -0.00000002,   0.00000246,  -0.00000008,  -0.00001748,  -0.00002041,   0.00005209,  -0.00000001,  -0.00000553,  -0.00000023
  5.53641670,   0.00002432,  -0.00001532,   1.00002120,  -0.00000002,   0.00000288,  -0.00000008,  -0.00001748,  -0.00002041,   0.00005210,  -0.00000001,  -0.00000553,  -0.00000023
  5.60300000,   0.00002430,  -0.00001532,   1.00002100,  -0.00000002,   0.00000288,  -0.00000008,  -0.00001748,  -0.00002041,   0.00005210,  -0.00000001,  -0.00000553,  -0.00000023
  5.66958330,   0.00002399,  -0.00001549,   1.00003160,  -0.00000002,   0.00000302,  -0.00000008,  -0.00001748,  -0.00002041,   0.00005211,  -0.00000001,  -0.00000553,  -0.00000023
  5.73616670,   0.00002502,  -0.00001492,   0.99999704,  -0.00000002,   0.00000253,  -0.00000007,  -0.00001749,  -0.00002041,   0.00005211,  -0.00000001,  -0.00000553,  -0.00000023
  5.80275000,   0.00002518,  -0.00001484,   0.99999090,  -0.00000002,   0.00000243,  -0.00000007,  -0.00001749,  -0.00002041,   0.00005211,  -0.00000001,  -0.00000553,  -0.00000023
  5.86933330,   0.00002597,  -0.00001444,   0.99996448,  -0.00000002,   0.00000205,  -0.00000005,  -0.00001749,  -0.00002041,   0.00005211,  -0.00000001,  -0.00000554,  -0.00000023
  5.93591670,   0.00002430,  -0.00001539,   1.00001980,  -0.00000002,   0.00000284,  -0.00000005,  -0.00001749,  -0.00002041,   0.00005212,  -0.00000001,  -0.00000554,  -0.00000023
  6.00250000,   0.00002468,  -0.00001518,   1.00000980,  -0.00000002,   0.00000270,  -0.00000005,  -0.00001750,  -0.00002041,   0.00005212,  -0.00000001,  -0.00000554,  -0.00000023
  6.06908330,   0.00002572,  -0.00001453,   0.99997347,  -0.00000002,   0.00000220,  -0.00000006,  -0.00001750,  -0.00002041,   0.00005212,  -0.00000001,  -0.00000554,  -0.00000023
  6.13566670,   0.00002563,  -0.00001453,   0.99997734,  -0.00000002,   0.00000226,  -0.00000008,  -0.00001750,  -0.00002041,   0.00005212,  -0.00000001,  -0.00000554,  -0.00000023
  6.20225000,   0.00002461,  -0.00001515,   1.00001140,  -0.00000002,   0.00000274,  -0.00000007,  -0.00001750,  -0.00002042,   0.00005213,  -0.00000001,  -0.00000554,  -0.00000023
  6.26883330,   0.00002563,  -0.00001458,   0.99997696,  -0.00000002,   0.00000225,  -0.00000006,  -0.00001751,  -0.00002042,   0.00005213,  -0.00000001,  -0.00000554,  -0.00000023
  6.33541670,   0.00002572,  -0.00001457,   0.99997168,  -0.00000003,   0.00000216,  -0.00000004,  -0.00001751,  -0.00002042,   0.00005213,  -0.00000001,  -0.00000554,  -0.00000023
  6.40200000,   0.00002461,  -0.00001516,   1.00001040,  -0.00000002,   0.00000272,  -0.00000007,  -0.00001751,  -0.00002042,   0.00005214,  -0.00000001,  -0.00000554,  -0.00000023
  6.46858330,   0.00002502,  -0.00001492,   0.99999786,  -0.00000002,   0.00000255,  -0.00000007,  -0.00001751,  -0.00002042,   0.00005214,  -0.00000001,  -0.00000554,  -0.00000023
  6.53516670,   0.00002491,  -0.00001498,   1.00000040,  -0.00000002,   0.00000258,  -0.00000007,  -0.00001752,  -0.00002042,   0.00005214,  -0.00000001,  -0.00000554,  -0.00000023
  6.60175000,   0.00002592,  -0.00001439,   0.99996766,  -0.00000002,   0.00000213,  -0.00000007,  -0.00001752,  -0.00002042,   0.00005214,  -0.00000001,  -0.00000554,  -0.00000023
  6.66833330,   0.00002460,  -0.00001516,   1.00001050,  -0.00000002,   0.00000273,  -0.00000007,  -0.00001752,  -0.00002042,   0.00005215,  -0.00000001,  -0.00000554,  -0.00000023
  6.73491670,   0.00002478,  -0.00001510,   1.00000540,  -0.00000002,   0.00000265,  -0.00000006,  -0.00001752,  -0.00002042,   0.00005215,  -0.00000001,  -0.00000554,  -0.00000023
  6.80150000,   0.00002507,  -0.00001495,   0.99999479,  -0.00000002,   0.00000249,  -0.00000005,  -0.00001753,  -0.00002042,   0.00005215,  -0.00000001,  -0.00000554,  -0.00000023
  6.86808330,   0.00002379,  -0.00001566,   1.00003700,  -0.00000002,   0.00000309,  -0.00000006,  -0.00001753,  -0.00002042,   0.00005216,  -0.00000001,  -0.00000554,  -0.00000023
  6.93466670,   0.00002454,  -0.00001524,   1.00001360,  -0.00000002,   0.00000276,  -0.00000006,  -0.00001753,  -0.00002042,   0.00005216,  -0.00000001,  -0.00000555,  -0.00000023
  7.00125000,   0.00002653,  -0.00001408,   0.99994637,  -0.00000002,   0.00000181,  -0.00000005,  -0.00001753,  -0.00002042,   0.00005216,  -0.00000001,  -0.00000555,  -0.00000023
  7.06783330,   0.00002528,  -0.00001486,   0.99998430,  -0.00000002,   0.00000231,  -0.00000002,  -0.00001754,  -0.00002042,   0.00005216,  -0.00000001,  -0.00000555,  -0.00000023
  7.13441670,   0.00002589,  -0.00001442,   0.99996948,  -0.00000002,   0.00000215,  -0.00000006,  -0.00001754,  -0.00002042,   0.00005217,  -0.00000001,  -0.00000555,  -0.00000023
  7.20100000,   0.00002440,  -0.00001527,   1.00001760,  -0.00000002,   0.00000282,  -0.00000008,  -0.00001754,  -0.00002042,   0.00005217,  -0.00000001,  -0.00000555,  -0.00000023
  7.26758330,   0.00002466,  -0.00001512,   1.00000940,  -0.00000002,   0.00000272,  -0.00000008,  -0.00001754,  -0.00002042,   0.00005217,  -0.00000001,  -0.00000555,  -0.00000023
  7.33416670,   0.00002476,  -0.00001504,   1.00000630,  -0.00000002,   0.00000267,  -0.00000009,  -0.00001755,  -0.00002042,   0.00005218,  -0.00000001,  -0.00000555,  -0.00000023
  7.40075000,   0.00002550,  -0.00001461,   0.99998166,  -0.00000002,   0.00000232,  -0.00000008,  -0.00001755,  -0.00002042,   0.00005218,  -0.00000001,  -0.00000555,  -0.00000023
  7.46733330,   0.00002564,  -0.00001455,   0.99997714,  -0.00000002,   0.00000225,  -0.00000008,  -0.00001755,  -0.00002042,   0.00005218,  -0.00000001,  -0.00000555,  -0.00000023
  7.53391670,   0.00002469,  -0.00001511,   1.00000920,  -0.00000002,   0.00000271,  -0.00000008,  -0.00001755,  -0.00002043,   0.00005218,  -0.00000001,  -0.00000555,  -0.00000023
  7.60050000,   0.00002488,  -0.00001501,   1.00000310,  -0.00000002,   0.00000262,  -0.00000007,  -0.00001756,  -0.00002043,   0.00005219,  -0.00000001,  -0.00000555,  -0.00000023
  7.66708330,   0.00002494,  -0.00001499,   0.99999893,  -0.00000002,   0.00000256,  -0.00000006,  -0.00001756,  -0.00002043,   0.00005219,  -0.00000001,  -0.00000555,  -0.00000023
  7.73366670,   0.00002466,  -0.00001513,   1.00000910,  -0.00000002,   0.00000271,  -0.00000007,  -0.00001756,  -0.00002043,   0.00005219,  -0.00000001,  -0.00000555,  -0.00000023
  7.80025000,   0.00002508,  -0.00001488,   0.99999564,  -0.00000002,   0.00000252,  -0.00000007,  -0.00001756,  -0.00002043,   0.00005219,  -0.00000001,  -0.00000555,  -0.00000023
  7.86683330,   0.00002536,  -0.00001471,   0.99998652,  -0.00000002,   0.00000239,  -0.00000008,  -0.00001757,  -0.00002043,   0.00005220,  -0.00000001,  -0.00000555,  -0.00000023
  7.93341670,   0.00002663,  -0.00001394,   0.99994598,  -0.00000002,   0.00000182,  -0.00000010,  -0.00001757,  -0.00002043,   0.00005220,  -0.00000001,  -0.00000555,  -0.00000023
  8.00000000,   0.00002372,  -0.00001564,   1.00004120,  -0.00000002,   0.00000316,  -0.00000010,  -0.00001757,  -0.00002043,   0.00005221,  -0.00000001,  -0.00000556,  -0.00000023
  8.00025000,   0.00001969,  -0.00001648,   0.97503077,  -0.00000002,   0.00000233,  -0.00000012,  -0.00001734,  -0.00002011,   0.00005121,  -0.00000001,  -0.00000548,  -0.00000023
  8.00050000,   0.00002264,  -0.00000785,   0.95001330,  -0.00000001,   0.00000383,  -0.00000011,  -0.00001708,  -0.00001973,   0.00005011,  -0.00000001,  -0.00000538,  -0.00000022
  8.00075000,   0.00002255,  -0.00001687,   0.92503309,  -0.00000001,   0.00000301,  -0.00000010,  -0.00001680,  -0.00001933,   0.00004900,  -0.00000001,  -0.00000527,  -0.00000022
  8.00100000,   0.00002079,  -0.00001959,   0.90003825,   0.00000001,  -0.00000347,  -0.00000001,  -0.00001650,  -0.00001892,   0.00004787,  -0.00000001,  -0.00000517,  -0.00000021
  8.00125000,   0.00002121,  -0.00001718,   0.87505730,  -0.00000006,   0.00000009,  -0.00000004,  -0.00001620,  -0.00001850,   0.00004672,  -0.00000001,  -0.00000506,  -0.00000021
  8.00150000,   0.00002482,  -0.00001838,   0.85004174,  -0.00000004,   0.00000178,  -0.00000007,  -0.00001589,  -0.00001808,   0.00004557,  -0.00000001,  -0.00000495,  -0.00000020
  8.00175000,   0.00002333,  -0.00001615,   0.82503597,  -0.00000001,   0.00000222,  -0.00000008,  -0.00001558,  -0.00001765,   0.00004441,  -0.00000001,  -0.00000484,  -0.00000020
  8.00200000,   0.00002496,  -0.00001767,   0.80003474,  -0.00000000,   0.00000230,  -0.00000008,  -0.00001526,  -0.00001722,   0.00004325,  -0.00000001,  -0.00000473,  -0.00000019
  8.00225000,   0.00002272,  -0.00001647,   0.77503061,  -0.00000002,   0.00000121,  -0.00000006,  -0.00001494,  -0.00001678,   0.00004208,  -0.00000001,  -0.00000462,  -0.00000019
  8.00250000,   0.00002382,  -0.00001839,   0.75004547,  -0.00000004,   0.00000211,  -0.00000007,  -0.00001461,  -0.00001635,   0.00004090,  -0.00000001,  -0.00000450,  -0.00000018
  8.00275000,   0.00002259,  -0.00001551,   0.72502621,   0.00000000,   0.00000132,  -0.00000005,  -0.00001428,  -0.00001591,   0.00003972,  -0.00000001,  -0.00000439,  -0.00000018
  8.00300000,   0.00002445,  -0.00001881,   0.70004208,  -0.00000000,   0.00000225,  -0.00000007,  -0.00001395,  -0.00001547,   0.00003854,  -0.00000001,  -0.00000428,  -0.00000017
  8.00325000,   0.00002385,  -0.00001644,   0.67503037,  -0.00000001,   0.00000271,  -0.00000008,  -0.00001361,  -0.00001503,   0.00003736,  -0.00000001,  -0.00000416,  -0.00000017
  8.00350000,  -0.00000365,   0.00000274,   0.65003417,   0.00000000,   0.00000106,  -0.00000005,  -0.00001328,  -0.00001459,   0.00003617,  -0.00000001,  -0.00000405,  -0.00000016
  8.00375000,   0.00002163,  -0.00001718,   0.62504571,  -0.00000000,   0.00000188,  -0.00000006,  -0.00001293,  -0.00001415,   0.00003498,  -0.00000001,  -0.00000393,  -0.00000016
  8.00400000,   0.00002201,  -0.00001515,   0.60003142,  -0.00000001,   0.00000250,  -0.00000008,  -0.00001259,  -0.00001371,   0.00003379,  -0.00000001,  -0.00000382,  -0.00000015
  8.00425000,  -0.00000353,   0.00000281,   0.57503724,  -0.00000000,   0.00000126,  -0.00000005,  -0.00001224,  -0.00001326,   0.00003260,  -0.00000001,  -0.00000370,  -0.00000014
  8.00450000,   0.00002075,  -0.00001640,   0.55004349,  -0.00000000,   0.00000174,  -0.00000005,  -0.00001189,  -0.00001282,   0.00003140,  -0.00000001,  -0.00000359,  -0.00000014
  8.00475000,   0.00002529,  -0.00001823,   0.52502823,   0.00000002,   0.00000432,  -0.00000012,  -0.00001154,  -0.00001238,   0.00003020,  -0.00000001,  -0.00000347,  -0.00000013
  8.00500000,   0.00002269,  -0.00001687,   0.50003402,  -0.00000000,   0.00000383,  -0.00000011,  -0.00001118,  -0.00001193,   0.00002900,  -0.00000001,  -0.00000335,  -0.00000013
  8.00525000,   0.00002375,  -0.00001606,   0.47502089,  -0.00000002,   0.00000300,  -0.00000009,  -0.00001082,  -0.00001149,   0.00002780,  -0.00000001,  -0.00000324,  -0.00000012
  8.00550000,   0.00002412,  -0.00001632,   0.45001929,  -0.00000003,   0.00000288,  -0.00000009,  -0.00001047,  -0.00001104,   0.00002659,  -0.00000001,  -0.00000312,  -0.00000012
  8.00575000,   0.00002430,  -0.00001662,   0.42501896,  -0.00000002,   0.00000286,  -0.00000009,  -0.00001010,  -0.00001059,   0.00002539,  -0.00000001,  -0.00000300,  -0.00000011
  8.00600000,   0.00002412,  -0.00001631,   0.40001719,  -0.00000002,   0.00000292,  -0.00000009,  -0.00000974,  -0.00001015,   0.00002418,  -0.00000001,  -0.00000288,  -0.00000011
  8.00625000,   0.00002408,  -0.00001632,   0.37501644,  -0.00000002,   0.00000293,  -0.00000009,  -0.00000938,  -0.00000970,   0.00002297,  -0.00000001,  -0.00000277,  -0.00000010
  8.00650000,   0.00002404,  -0.00001625,   0.35001526,  -0.00000002,   0.00000294,  -0.00000009,  -0.00000901,  -0.00000925,   0.00002176,  -0.00000001,  -0.00000265,  -0.00000010
  8.00675000,   0.00002408,  -0.00001629,   0.32501429,  -0.00000002,   0.00000294,  -0.00000009,  -0.00000864,  -0.00000880,   0.00002054,  -0.00000001,  -0.00000253,  -0.00000009
  8.00700000,   0.00002406,  -0.00001627,   0.30001324,  -0.00000002,   0.00000295,  -0.00000009,  -0.00000827,  -0.00000835,   0.00001933,  -0.00000001,  -0.00000241,  -0.00000009
  8.00725000,   0.00002407,  -0.00001627,   0.27501224,  -0.00000002,   0.00000295,  -0.00000009,  -0.00000790,  -0.00000790,   0.00001811,  -0.00000001,  -0.00000229,  -0.00000008
  8.00750000,   0.00002308,  -0.00001523,   0.25001174,  -0.00000002,   0.00000328,  -0.00000010,  -0.00000753,  -0.00000745,   0.00001689,  -0.00000001,  -0.00000217,  -0.00000008
  8.00775000,   0.00002425,  -0.00001629,   0.22501003,  -0.00000002,   0.00000317,  -0.00000009,  -0.00000715,  -0.00000700,   0.00001567,  -0.00000000,  -0.00000205,  -0.00000007
  8.00800000,   0.00002373,  -0.00001577,   0.20000783,  -0.00000002,   0.00000317,  -0.00000010,  -0.00000677,  -0.00000654,   0.00001445,  -0.00000000,  -0.00000193,  -0.00000007
  8.00825000,   0.00002388,  -0.00001592,   0.17500678,  -0.00000002,   0.00000318,  -0.00000010,  -0.00000640,  -0.00000609,   0.00001323,  -0.00000000,  -0.00000182,  -0.00000006
  8.00850000,   0.00002381,  -0.00001586,   0.15000583,  -0.00000002,   0.00000317,  -0.00000010,  -0.00000602,  -0.00000564,   0.00001201,  -0.00000000,  -0.00000170,  -0.00000006
  8.00875000,   0.00002378,  -0.00001585,   0.12500485,  -0.00000002,   0.00000316,  -0.00000010,  -0.00000564,  -0.00000519,   0.00001079,  -0.00000000,  -0.00000158,  -0.00000005
  8.00900000,   0.00002377,  -0.00001584,   0.10000383,  -0.00000002,   0.00000316,  -0.00000010,  -0.00000525,  -0.00000473,   0.00000956,  -0.00000000,  -0.00000145,  -0.00000005
  8.00925000,   0.00002375,  -0.00001582,   0.07500283,  -0.00000002,   0.00000315,  -0.00000010,  -0.00000487,  -0.00000428,   0.00000834,  -0.00000000,  -0.00000133,  -0.00000004
  8.00950000,   0.00002375,  -0.00001582,   0.05000181,  -0.00000002,   0.00000315,  -0.00000010,  -0.00000449,  -0.00000382,   0.00000711,  -0.00000000,  -0.00000121,  -0.00000004
  8.00975000,   0.00002374,  -0.00001564,   0.02500095,  -0.00000002,   0.00000316,  -0.00000010,  -0.00000410,  -0.00000337,   0.00000588,  -0.00000000,  -0.00000109,  -0.00000003
  8.01000000,   0.00002372,  -0.00001564,  -0.00000001,  -0.00000002,   0.00000316,  -0.00000010,  -0.00000371,  -0.00000292,   0.00000465,  -0.00000000,  -0.00000097,  -0.00000002
  8.14316670,   0.00002372,  -0.00001564,  -0.00000001,  -0.00000002,   0.00000316,  -0.00000010,  -0.00000039,  -0.00000068,   0.00000082,  -0.00000000,  -0.00000022,  -0.00000000
  8.27633330,   0.00002372,  -0.00001564,  -0.00000001,  -0.00000002,   0.00000316,  -0.00000010,  -0.00000029,  -0.00000031,   0.00000049,  -0.00000000,  -0.00000013,  -0.00000000
  8.40950000,   0.00002372,  -0.00001564,  -0.00000001,  -0.00000002,   0.00000316,  -0.00000010,  -0.00000028,  -0.00000018,   0.00000040,  -0.00000000,  -0.00000010,  -0.00000000
  8.54266670,   0.00002372,  -0.00001564,  -0.00000001,  -0.00000002,   0.00000316,  -0.00000010,  -0.00000028,  -0.00000014,   0.00000037,  -0.00000000,  -0.00000009,  -0.00000000
  8.67583330,   0.00002372,  -0.00001564,  -0.00000001,  -0.00000002,   0.00000316,  -0.00000010,  -0.00000028,  -0.00000012,   0.00000036,  -0.00000000,  -0.00000009,  -0.00000000
  8.80900000,   0.00002372,  -0.00001564,  -0.00000001,  -0.00000002,   0.00000316,  -0.00000010,  -0.00000028,  -0.00000011,   0.00000036,  -0.00000000,  -0.00000009,  -0.00000000
  8.94216670,   0.00002372,  -0.00001564,  -0.00000002,  -0.00000002,   0.00000316,  -0.00000010,  -0.00000028,  -0.00000010,   0.00000035,  -0.00000000,  -0.00000009,  -0.00000000
  9.07533330,   0.00002372,  -0.00001564,  -0.00000002,  -0.00000002,   0.00000316,  -0.00000010,  -0.00000029,  -0.00000010,   0.00000035,  -0.00000000,  -0.00000009,  -0.00000000
  9.20850000,   0.00002372,  -0.00001564,  -0.00000001,  -0.00000002,   0.00000316,  -0.00000010,  -0.00000029,  -0.00000009,   0.00000035,  -0.00000000,  -0.00000009,  -0.00000000
  9.34166670,   0.00002372,  -0.00001564,  -0.00000001,  -0.00000002,   0.00000316,  -0.00000010,  -0.00000029,  -0.00000009,   0.00000035,  -0.00000000,  -0.00000009,  -0.00000000
  9.47483330,   0.00002372,  -0.00001564,  -0.00000001,  -0.00000002,   0.00000316,  -0.00000010,  -0.00000029,  -0.00000009,   0.00000035,  -0.00000000,  -0.00000009,  -0.00000000
  9.60800000,   0.00002372,  -0.00001564,  -0.00000001,  -0.00000002,   0.00000316,  -0.00000010,  -0.00000029,  -0.00000009,   0.00000035,  -0.00000000,  -0.00000009,  -0.00000000
  9.74116670,   0.00002372,  -0.00001564,  -0.00000001,  -0.00000002,   0.00000316,  -0.00000010,  -0.00000029,  -0.00000008,   0.00000035,  -0.00000000,  -0.00000009,  -0.00000000
  9.87433330,   0.00002372,  -0.00001564,  -0.00000001,  -0.00000002,   0.00000316,  -0.00000010,  -0.00000029,  -0.00000008,   0.00000035,  -0.00000000,  -0.00000009,  -0.00000000
 10.00750000,   0.00002372,  -0.00001564,  -0.00000001,  -0.00000002,   0.00000316,  -0.00000010,  -0.00000029,  -0.00000008,   0.00000034,  -0.00000000,  -0.00000009,  -0.00000000
 10.14066700,   0.00002372,  -0.00001564,  -0.00000001,  -0.00000002,   0.00000316,  -0.00000010,  -0.00000029,  -0.00000008,   0.00000034,  -0.00000000,  -0.00000009,  -0.00000000
 10.27383300,   0.00002372,  -0.00001564,  -0.00000002,  -0.00000002,   0.00000316,  -0.00000010,  -0.00000029,  -0.00000008,   0.00000034,  -0.00000000,  -0.00000009,  -0.00000000
 10.40700000,   0.00002372,  -0.00001564,  -0.00000002,  -0.00000002,   0.00000316,  -0.00000010,  -0.00000029,  -0.00000008,   0.00000034,  -0.00000000,  -0.00000009,  -0.00000000
 10.54016700,   0.00002372,  -0.00001564,  -0.00000001,  -0.00000002,   0.00000316,  -0.00000010,  -0.00000029,  -0.00000007,   0.00000034,  -0.00000000,  -0.00000009,  -0.00000000
 10.67333300,   0.00002372,  -0.00001564,  -0.00000001,  -0.00000002,   0.00000316,  -0.00000010,  -0.00000029,  -0.00000007,   0.00000034,  -0.00000000,  -0.00000009,  -0.00000000
 10.80650000,   0.00002372,  -0.00001564,  -0.00000001,  -0.00000002,   0.00000316,  -0.00000010,  -0.00000029,  -0.00000007,   0.00000034,  -0.00000000,  -0.00000008,  -0.00000000
 10.93966700,   0.00002372,  -0.00001564,  -0.00000001,  -0.00000002,   0.00000316,  -0.00000010,  -0.00000029,  -0.00000007,   0.00000034,  -0.00000000,  -0.00000008,  -0.00000000
 11.07283300,   0.00002372,  -0.00001564,  -0.00000001,  -0.00000002,   0.00000316,  -0.00000010,  -0.00000029,  -0.00000007,   0.00000034,  -0.00000000,  -0.00000008,  -0.00000000
 11.20600000,   0.00002372,  -0.00001564,  -0.00000001,  -0.00000002,   0.00000316,  -0.00000010,  -0.00000029,  -0.00000007,   0.00000034,  -0.00000000,  -0.00000008,  -0.00000000
 11.33916700,   0.00002373,  -0.00001564,  -0.00000001,  -0.00000002,   0.00000316,  -0.00000010,  -0.00000029,  -0.00000007,   0.00000034,  -0.00000000,  -0.00000008,  -0.00000000
 11.47233300,   0.00002372,  -0.00001564,  -0.00000001,  -0.00000002,   0.00000316,  -0.00000010,  -0.00000029,  -0.00000007,   0.00000034,  -0.00000000,  -0.00000008,  -0.00000000
 11.60550000,   0.00002372,  -0.00001564,  -0.00000001,  -0.00000002,   0.00000316,  -0.00000010,  -0.00000029,  -0.00000007,   0.00000033,  -0.00000000,  -0.00000008,  -0.00000000
 11.73866700,   0.00002372,  -0.00001564,  -0.00000001,  -0.00000002,   0.00000316,  -0.00000010,  -0.00000029,  -0.00000007,   0.00000033,  -0.00000000,  -0.00000008,  -0.00000000
 11.87183300,   0.00002372,  -0.00001564,  -0.00000001,  -0.00000002,   0.00000316,  -0.00000010,  -0.00000029,  -0.00000006,   0.00000033,  -0.00000000,  -0.00000008,  -0.00000000
 12.00500000,   0.00002372,  -0.00001564,  -0.00000001,  -0.00000002,   0.00000316,  -0.00000010,  -0.00000029,  -0.00000006,   0.00000033,  -0.00000000,  -0.00000008,  -0.00000000
 12.13816700,   0.00002372,  -0.00001564,  -0.00000001,  -0.00000002,   0.00000316,  -0.00000010,  -0.00000029,  -0.00000006,   0.00000033,  -0.00000000,  -0.00000008,  -0.00000000
 12.27133300,   0.00002372,  -0.00001564,  -0.00000001,  -0.00000002,   0.00000316,  -0.00000010,  -0.00000029,  -0.00000006,   0.00000033,  -0.00000000,  -0.00000008,  -0.00000000
 12.40450000,   0.00002372,  -0.00001564,  -0.00000001,  -0.00000002,   0.00000316,  -0.00000010,  -0.00000029,  -0.00000006,   0.00000033,  -0.00000000,  -0.00000008,  -0.00000000
 12.53766700,   0.00002372,  -0.00001564,  -0.00000001,  -0.00000002,   0.00000316,  -0.00000010,  -0.00000029,  -0.00000006,   0.00000033,  -0.00000000,  -0.00000008,  -0.00000000
 12.67083300,   0.00002372,  -0.00001564,  -0.00000001,  -0.00000002,   0.00000316,  -0.00000010,  -0.00000029,  -0.00000006,   0.00000033,  -0.00000000,  -0.00000008,  -0.00000000
 12.80400000,   0.00002372,  -0.00001564,  -0.00000001,  -0.00000002,   0.00000316,  -0.00000010,  -0.00000029,  -0.00000006,   0.00000033,  -0.00000000,  -0.00000008,  -0.00000000
 12.93716700,   0.00002372,  -0.00001564,  -0.00000001,  -0.00000002,   0.00000316,  -0.00000010,  -0.00000029,  -0.00000006,   0.00000033,  -0.00000000,  -0.00000008,  -0.00000000
 13.07033300,   0.00002372,  -0.00001564,  -0.00000001,  -0.00000002,   0.00000316,  -0.00000010,  -0.00000029,  -0.00000006,   0.00000033,  -0.00000000,  -0.00000008,  -0.00000000
 13.20350000,   0.00002372,  -0.00001564,  -0.00000001,  -0.00000002,   0.00000316,  -0.00000010,  -0.00000029,  -0.00000006,   0.00000032,  -0.00000000,  -0.00000008,  -0.00000000
 13.33666700,   0.00002372,  -0.00001564,  -0.00000001,  -0.00000002,   0.00000316,  -0.00000010,  -0.00000029,  -0.00000006,   0.00000032,  -0.00000000,  -0.00000008,  -0.00000000
 13.46983300,   0.00002372,  -0.00001564,  -0.00000001,  -0.00000002,   0.00000316,  -0.00000010,  -0.00000029,  -0.00000006,   0.00000032,  -0.00000000,  -0.00000008,  -0.00000000
 13.60300000,   0.00002372,  -0.00001564,  -0.00000001,  -0.00000002,   0.00000316,  -0.00000010,  -0.00000029,  -0.00000005,   0.00000032,  -0.00000000,  -0.00000008,  -0.00000000
 13.73616700,   0.00002372,  -0.00001564,  -0.00000001,  -0.00000002,   0.00000316,  -0.00000010,  -0.00000029,  -0.00000005,   0.00000032,  -0.00000000,  -0.00000008,  -0.00000000
 13.86933300,   0.00002372,  -0.00001564,  -0.00000001,  -0.00000002,   0.00000316,  -0.00000010,  -0.00000029,  -0.00000005,   0.00000032,  -0.00000000,  -0.00000008,  -0.00000000
 14.00250000,   0.00002372,  -0.00001564,  -0.00000001,  -0.00000002,   0.00000316,  -0.00000010,  -0.00000029,  -0.00000005,   0.00000032,  -0.00000000,  -0.00000008,  -0.00000000
 14.13566700,   0.00002372,  -0.00001564,  -0.00000001,  -0.00000002,   0.00000316,  -0.00000010,  -0.00000029,  -0.00000005,   0.00000032,  -0.00000000,  -0.00000008,  -0.00000000
 14.26883300,   0.00002372,  -0.00001564,  -0.00000001,  -0.00000002,   0.00000316,  -0.00000010,  -0.00000029,  -0.00000005,   0.00000032,  -0.00000000,  -0.00000008,  -0.00000000
 14.40200000,   0.00002372,  -0.00001564,  -0.00000001,  -0.00000002,   0.00000316,  -0.00000010,  -0.00000029,  -0.00000005,   0.00000032,  -0.00000000,  -0.00000008,  -0.00000000
 14.53516700,   0.00002372,  -0.00001564,  -0.00000002,  -0.00000002,   0.00000316,  -0.00000010,  -0.00000029,  -0.00000005,   0.00000032,  -0.00000000,  -0.00000008,  -0.00000000
 14.66833300,   0.00002372,  -0.00001564,  -0.00000001,  -0.00000002,   0.00000316,  -0.00000010,  -0.00000029,  -0.00000005,   0.00000032,  -0.00000000,  -0.00000008,  -0.00000000
 14.80150000,   0.00002372,  -0.00001564,  -0.00000001,  -0.00000002,   0.00000316,  -0.00000010,  -0.00000029,  -0.00000005,   0.00000032,  -0.00000000,  -0.00000008,  -0.00000000
 14.93466700,   0.00002372,  -0.00001564,  -0.00000001,  -0.00000002,   0.00000316,  -0.00000010,  -0.00000029,  -0.00000005,   0.00000031,  -0.00000000,  -0.00000008,  -0.00000000
 15.06783300,   0.00002372,  -0.00001564,  -0.00000001,  -0.00000002,   0.00000316,  -0.00000010,  -0.00000029,  -0.00000005,   0.00000031,  -0.00000000,  -0.00000008,  -0.00000000
 15.20100000,   0.00002372,  -0.00001564,  -0.00000001,  -0.00000002,   0.00000316,  -0.00000010,  -0.00000029,  -0.00000005,   0.00000031,  -0.00000000,  -0.00000008,  -0.00000000
 15.33416700,   0.00002372,  -0.00001564,  -0.00000001,  -0.00000002,   0.00000316,  -0.00000010,  -0.00000029,  -0.00000005,   0.00000031,  -0.00000000,  -0.00000008,  -0.00000000
 15.46733300,   0.00002372,  -0.00001564,  -0.00000001,  -0.00000002,   0.00000316,  -0.00000010,  -0.00000028,  -0.00000005,   0.00000031,  -0.00000000,  -0.00000008,  -0.00000000
 15.60050000,   0.00002372,  -0.00001564,  -0.00000001,  -0.00000002,   0.00000316,  -0.00000010,  -0.00000028,  -0.00000005,   0.00000031,  -0.00000000,  -0.00000008,  -0.00000000
 15.73366700,   0.00002372,  -0.00001564,  -0.00000001,  -0.00000002,   0.00000316,  -0.00000010,  -0.00000028,  -0.00000005,   0.00000031,  -0.00000000,  -0.00000008,  -0.00000000
 15.86683300,   0.00002372,  -0.00001564,  -0.00000001,  -0.00000002,   0.00000316,  -0.00000010,  -0.00000028,  -0.00000005,   0.00000031,  -0.00000000,  -0.00000008,  -0.00000000
 16.00000000,   0.00002372,  -0.00001564,  -0.00000001,  -0.00000002,   0.00000316,  -0.00000010,  -0.00000028,  -0.00000005,   0.00000031,  -0.00000000,  -0.00000008,  -0.00000000
