Time (m)    , Stress_xx (MPa), Stress_yy (MPa), Stress_zz (MPa), Stress_xy (MPa), Stress_xz (MPa), Stress_yz (MPa), Strain_xx   , Strain_yy   , Strain_zz   , Strain_xy   , Strain_xz   , Strain_yz   
  0.00000000,   0.00000000,   0.00000000,   0.00000000,   0.00000000,   0.00000000,   0.00000000,   0.00000000,   0.00000000,   0.00000000,   0.00000000,   0.00000000,   0.00000000
  0.00050000,   0.04999970,  -0.00000024,   0.00000341,   0.00000000,   0.00000004,  -0.00000000,   0.00000609,  -0.00000163,  -0.00000050,  -0.00000004,   0.00000003,   0.00000000
  0.00100000,   0.09999961,   0.00000001,   0.00000239,  -0.00000000,   0.00000003,  -0.00000000,   0.00001307,  -0.00000378,  -0.00000108,  -0.00000009,   0.00000006,   0.00000001
  0.00150000,   0.14999949,   0.00000031,   0.00000024,  -0.00000000,   0.00000000,  -0.00000000,   0.00002045,  -0.00000615,  -0.00000169,  -0.00000014,   0.00000010,   0.00000001
  0.00200000,   0.19999879,   0.00000023,   0.00000332,   0.00000001,   0.00000004,  -0.00000000,   0.00002810,  -0.00000869,  -0.00000232,  -0.00000020,   0.00000014,   0.00000002
  0.00250000,   0.24999801,  -0.00000002,   0.00000625,   0.00000001,   0.00000008,  -0.00000000,   0.00003598,  -0.00001134,  -0.00000297,  -0.00000025,   0.00000018,   0.00000002
  0.00300000,   0.29999898,  -0.00000014,  -0.00000690,   0.00000002,  -0.00000006,  -0.00000001,   0.00004404,  -0.00001410,  -0.00000364,  -0.00000031,   0.00000022,   0.00000003
  0.00350000,   0.35000096,  -0.00000064,  -0.00002178,   0.00000004,  -0.00000033,   0.00000003,   0.00005226,  -0.00001694,  -0.00000432,  -0.00000037,   0.00000026,   0.00000003
  0.00400000,   0.39999836,  -0.00000061,  -0.00001216,   0.00000004,  -0.00000009,  -0.00000001,   0.00006062,  -0.00001987,  -0.00000500,  -0.00000042,   0.00000031,   0.00000003
  0.00450000,   0.44999689,  -0.00000127,  -0.00000426,   0.00000005,  -0.00000008,   0.00000002,   0.00006910,  -0.00002286,  -0.00000570,  -0.00000048,   0.00000035,   0.00000004
  0.00500000,   0.49999601,  -0.00000088,   0.00000096,   0.00000004,  -0.00000004,   0.00000002,   0.00007770,  -0.00002591,  -0.00000641,  -0.00000054,   0.00000040,   0.00000004
  0.00550000,   0.54999727,  -0.00000156,  -0.00000001,   0.00000003,  -0.00000004,   0.00000002,   0.00008641,  -0.00002903,  -0.00000713,  -0.00000061,   0.00000044,   0.00000005
  0.00600000,   0.59999832,  -0.00000192,  -0.00000251,   0.00000003,  -0.00000007,   0.00000002,   0.00009522,  -0.00003220,  -0.00000785,  -0.00000067,   0.00000049,   0.00000005
  0.00650000,   0.64999220,  -0.00001427,  -0.00004192,   0.00000013,  -0.00000034,   0.00000001,   0.00010412,  -0.00003543,  -0.00000859,  -0.00000073,   0.00000054,   0.00000006
  0.00700000,   0.69999615,  -0.00000207,   0.00000397,   0.00000005,   0.00000003,   0.00000002,   0.00011311,  -0.00003870,  -0.00000932,  -0.00000079,   0.00000058,   0.00000006
  0.00750000,   0.74999784,  -0.00000027,  -0.00000453,   0.00000003,  -0.00000009,   0.00000001,   0.00012219,  -0.00004202,  -0.00001007,  -0.00000086,   0.00000063,   0.00000007
  0.00800000,   0.79999708,  -0.00000153,   0.00001188,   0.00000002,   0.00000011,   0.00000002,   0.00013134,  -0.00004538,  -0.00001082,  -0.00000092,   0.00000068,   0.00000007
  0.00850000,   0.84999773,  -0.00000066,   0.00000083,   0.00000003,  -0.00000002,   0.00000002,   0.00014057,  -0.00004879,  -0.00001158,  -0.00000098,   0.00000073,   0.00000008
  0.00900000,   0.89999457,  -0.00001086,  -0.00002875,   0.00000010,  -0.00000023,   0.00000001,   0.00014986,  -0.00005223,  -0.00001234,  -0.00000105,   0.00000078,   0.00000008
  0.00950000,   0.94999224,  -0.00001236,  -0.00002819,   0.00000014,  -0.00000015,   0.00000000,   0.00015922,  -0.00005572,  -0.00001311,  -0.00000111,   0.00000083,   0.00000008
  0.01000000,   0.99999487,  -0.00000184,   0.00001809,   0.00000003,   0.00000021,   0.00000001,   0.00016865,  -0.00005924,  -0.00001388,  -0.00000118,   0.00000088,   0.00000009
  0.07658333,   0.99999510,  -0.00000212,   0.00005387,  -0.00000000,   0.00000070,  -0.00000000,   0.00021593,  -0.00008937,  -0.00001702,  -0.00000150,   0.00000115,   0.00000009
  0.14316667,   0.99999505,  -0.00000189,   0.00003715,   0.00000001,   0.00000047,   0.00000001,   0.00022240,  -0.00009498,  -0.00001723,  -0.00000154,   0.00000119,   0.00000009
  0.20975000,   0.99999723,  -0.00000072,  -0.00000936,  -0.00000001,  -0.00000018,   0.00000001,   0.00022516,  -0.00009757,  -0.00001729,  -0.00000156,   0.00000120,   0.00000010
  0.27633333,   0.99999665,  -0.00000101,   0.00002954,  -0.00000002,   0.00000035,   0.00000002,   0.00022649,  -0.00009885,  -0.00001730,  -0.00000156,   0.00000121,   0.00000010
  0.34291667,   0.99999750,  -0.00000040,   0.00001682,  -0.00000002,   0.00000017,   0.00000002,   0.00022715,  -0.00009951,  -0.00001731,  -0.00000157,   0.00000121,   0.00000010
  0.40950000,   0.99999856,  -0.00000033,  -0.00001077,  -0.00000002,  -0.00000023,   0.00000000,   0.00022749,  -0.00009986,  -0.00001731,  -0.00000157,   0.00000121,   0.00000010
  0.47608333,   0.99999962,  -0.00000122,   0.00001557,  -0.00000003,   0.00000013,   0.00000000,   0.00022767,  -0.00010005,  -0.00001731,  -0.00000157,   0.00000121,   0.00000010
  0.54266667,   0.99999896,  -0.00000215,   0.00001651,  -0.00000001,   0.00000015,  -0.00000000,   0.00022779,  -0.00010017,  -0.00001731,  -0.00000157,   0.00000121,   0.00000010
  0.60925000,   0.99999857,  -0.00000130,  -0.00000454,  -0.00000001,  -0.00000016,   0.00000001,   0.00022786,  -0.00010025,  -0.00001732,  -0.00000157,   0.00000121,   0.00000010
  0.67583333,   0.99999887,  -0.00000558,   0.00001215,   0.00000002,   0.00000018,   0.00000001,   0.00022791,  -0.00010030,  -0.00001732,  -0.00000157,   0.00000122,   0.00000010
  0.74241667,   0.99999678,  -0.00000377,   0.00001283,   0.00000003,   0.00000015,   0.00000001,   0.00022796,  -0.00010035,  -0.00001732,  -0.00000157,   0.00000122,   0.00000010
  0.80900000,   0.99999352,  -0.00000189,   0.00003578,   0.00000004,   0.00000047,   0.00000001,   0.00022800,  -0.00010039,  -0.00001732,  -0.00000157,   0.00000122,   0.00000010
  0.87558333,   0.99999534,  -0.00000304,   0.00002427,   0.00000004,   0.00000031,   0.00000001,   0.00022804,  -0.00010043,  -0.00001732,  -0.00000157,   0.00000122,   0.00000010
  0.94216667,   0.99999617,  -0.00000292,   0.00000898,   0.00000003,   0.00000009,   0.00000001,   0.00022808,  -0.00010047,  -0.00001732,  -0.00000157,   0.00000122,   0.00000010
  1.00875000,   0.99999902,  -0.00000664,   0.00001129,   0.00000003,   0.00000011,   0.00000002,   0.00022811,  -0.00010051,  -0.00001732,  -0.00000157,   0.00000122,   0.00000010
  1.07533330,   0.99999639,  -0.00000424,   0.00003264,   0.00000003,   0.00000041,   0.00000000,   0.00022815,  -0.00010054,  -0.00001732,  -0.00000157,   0.00000122,   0.00000010
  1.14191670,   0.99999525,  -0.00000217,   0.00002189,   0.00000003,   0.00000026,   0.00000001,   0.00022818,  -0.00010057,  -0.00001733,  -0.00000157,   0.00000122,   0.00000010
  1.20850000,   0.99999631,  -0.00000248,  -0.00000281,   0.00000003,  -0.00000010,   0.00000002,   0.00022822,  -0.00010060,  -0.00001733,  -0.00000157,   0.00000122,   0.00000010
  1.27508330,   0.99999527,  -0.00000219,   0.00001793,   0.00000003,   0.00000020,   0.00000000,   0.00022825,  -0.00010063,  -0.00001733,  -0.00000157,   0.00000122,   0.00000010
  1.34166670,   0.99999558,  -0.00000245,   0.00001319,   0.00000003,   0.00000014,   0.00000001,   0.00022828,  -0.00010066,  -0.00001733,  -0.00000157,   0.00000122,   0.00000010
  1.40825000,   0.99999520,  -0.00000256,   0.00002282,   0.00000003,   0.00000028,   0.00000000,   0.00022831,  -0.00010069,  -0.00001733,  -0.00000157,   0.00000122,   0.00000010
  1.47483330,   0.99999584,  -0.00000384,   0.00003036,   0.00000003,   0.00000038,  -0.00000000,   0.00022834,  -0.00010072,  -0.00001734,  -0.00000157,   0.00000122,   0.00000010
  1.54141670,   0.99999610,  -0.00000318,   0.00001433,   0.00000003,   0.00000015,   0.00000001,   0.00022838,  -0.00010075,  -0.00001734,  -0.00000157,   0.00000122,   0.00000010
  1.60800000,   0.99999552,  -0.00000278,   0.00001985,   0.00000003,   0.00000023,   0.00000001,   0.00022841,  -0.00010078,  -0.00001734,  -0.00000158,   0.00000122,   0.00000010
  1.67458330,   0.99999530,  -0.00000207,   0.00001256,   0.00000003,   0.00000013,   0.00000001,   0.00022844,  -0.00010080,  -0.00001734,  -0.00000158,   0.00000122,   0.00000010
  1.74116670,   0.99999505,  -0.00000229,   0.00002159,   0.00000003,   0.00000026,   0.00000001,   0.00022847,  -0.00010083,  -0.00001734,  -0.00000158,   0.00000122,   0.00000010
  1.80775000,   0.99999545,  -0.00000325,   0.00002935,   0.00000003,   0.00000036,   0.00000001,   0.00022849,  -0.00010086,  -0.00001735,  -0.00000158,   0.00000122,   0.00000010
  1.87433330,   0.99999597,  -0.00000486,   0.00004688,   0.00000003,   0.00000061,   0.00000000,   0.00022852,  -0.00010088,  -0.00001735,  -0.00000158,   0.00000122,   0.00000010
  1.94091670,   0.99999621,  -0.00000336,   0.00001589,   0.00000003,   0.00000018,   0.00000001,   0.00022855,  -0.00010091,  -0.00001735,  -0.00000158,   0.00000122,   0.00000010
  2.00750000,   0.99999629,  -0.00000305,   0.00000780,   0.00000003,   0.00000006,   0.00000002,   0.00022858,  -0.00010093,  -0.00001735,  -0.00000158,   0.00000122,   0.00000010
  2.07408330,   0.99999743,  -0.00000264,  -0.00002442,   0.00000003,  -0.00000040,   0.00000002,   0.00022861,  -0.00010095,  -0.00001736,  -0.00000158,   0.00000122,   0.00000010
  2.14066670,   0.99999532,  -0.00000341,   0.00003631,   0.00000003,   0.00000046,   0.00000002,   0.00022864,  -0.00010098,  -0.00001736,  -0.00000158,   0.00000122,   0.00000010
  2.20725000,   0.99999613,  -0.00000342,   0.00001957,   0.00000003,   0.00000023,   0.00000002,   0.00022866,  -0.00010100,  -0.00001736,  -0.00000158,   0.00000122,   0.00000010
  2.27383330,   0.99999533,  -0.00000277,   0.00002418,   0.00000003,   0.00000030,   0.00000001,   0.00022869,  -0.00010103,  -0.00001736,  -0.00000158,   0.00000122,   0.00000010
  2.34041670,   0.99999536,  -0.00000260,   0.00001960,   0.00000003,   0.00000023,   0.00000001,   0.00022872,  -0.00010105,  -0.00001737,  -0.00000158,   0.00000122,   0.00000010
  2.40700000,   0.99999441,  -0.00000243,   0.00003861,   0.00000003,   0.00000049,   0.00000001,   0.00022875,  -0.00010107,  -0.00001737,  -0.00000158,   0.00000122,   0.00000010
  2.47358330,   0.99999521,  -0.00000237,   0.00001996,   0.00000003,   0.00000023,   0.00000001,   0.00022877,  -0.00010109,  -0.00001737,  -0.00000158,   0.00000122,   0.00000010
  2.54016670,   0.99999493,  -0.00000245,   0.00002701,   0.00000003,   0.00000033,   0.00000001,   0.00022880,  -0.00010112,  -0.00001737,  -0.00000158,   0.00000122,   0.00000010
  2.60675000,   0.99999519,  -0.00000202,   0.00001391,   0.00000003,   0.00000015,   0.00000001,   0.00022882,  -0.00010114,  -0.00001738,  -0.00000158,   0.00000122,   0.00000010
  2.67333330,   0.99999485,  -0.00000242,   0.00002860,   0.00000003,   0.00000035,   0.00000001,   0.00022885,  -0.00010116,  -0.00001738,  -0.00000158,   0.00000122,   0.00000010
  2.73991670,   0.99999564,  -0.00000291,   0.00002075,   0.00000003,   0.00000025,   0.00000001,   0.00022888,  -0.00010118,  -0.00001738,  -0.00000158,   0.00000122,   0.00000010
  2.80650000,   0.99999694,  -0.00000291,  -0.00000841,   0.00000003,  -0.00000016,   0.00000001,   0.00022890,  -0.00010120,  -0.00001738,  -0.00000158,   0.00000122,   0.00000010
  2.87308330,   0.99999522,  -0.00000209,   0.00001471,   0.00000003,   0.00000016,   0.00000001,   0.00022893,  -0.00010122,  -0.00001739,  -0.00000158,   0.00000122,   0.00000010
  2.93966670,   0.99999413,  -0.00000230,   0.00004220,   0.00000003,   0.00000055,   0.00000001,   0.00022895,  -0.00010125,  -0.00001739,  -0.00000158,   0.00000122,   0.00000010
  3.00625000,   0.99999511,  -0.00000195,   0.00001457,   0.00000003,   0.00000016,   0.00000001,   0.00022898,  -0.00010127,  -0.00001739,  -0.00000158,   0.00000122,   0.00000010
  3.07283330,   0.99999559,  -0.00000232,   0.00001047,   0.00000002,   0.00000010,   0.00000001,   0.00022900,  -0.00010129,  -0.00001739,  -0.00000158,   0.00000122,   0.00000010
  3.13941670,   0.99999492,  -0.00000254,   0.00003011,   0.00000003,   0.00000038,   0.00000001,   0.00022903,  -0.00010131,  -0.00001739,  -0.00000158,   0.00000122,   0.00000010
  3.20600000,   0.99999497,  -0.00000288,   0.00003491,   0.00000003,   0.00000045,   0.00000001,   0.00022905,  -0.00010133,  -0.00001740,  -0.00000158,   0.00000122,   0.00000010
  3.27258330,   0.99999555,  -0.00000216,   0.00000950,   0.00000002,   0.00000009,   0.00000001,   0.00022908,  -0.00010135,  -0.00001740,  -0.00000158,   0.00000122,   0.00000010
  3.33916670,   0.99999626,  -0.00000184,  -0.00001154,   0.00000002,  -0.00000021,   0.00000001,   0.00022910,  -0.00010136,  -0.00001740,  -0.00000158,   0.00000122,   0.00000010
  3.40575000,   0.99999515,  -0.00000236,   0.00002189,   0.00000003,   0.00000027,   0.00000001,   0.00022912,  -0.00010138,  -0.00001740,  -0.00000158,   0.00000122,   0.00000010
  3.47233330,   0.99999522,  -0.00000207,   0.00001564,   0.00000002,   0.00000018,   0.00000001,   0.00022915,  -0.00010140,  -0.00001741,  -0.00000158,   0.00000122,   0.00000010
  3.53891670,   0.99999489,  -0.00000218,   0.00002445,   0.00000003,   0.00000030,   0.00000001,   0.00022917,  -0.00010142,  -0.00001741,  -0.00000158,   0.00000122,   0.00000010
  3.60550000,   0.99999519,  -0.00000245,   0.00002299,   0.00000003,   0.00000028,   0.00000001,   0.00022919,  -0.00010144,  -0.00001741,  -0.00000158,   0.00000122,   0.00000010
  3.67208330,   0.99999529,  -0.00000312,   0.00003311,   0.00000003,   0.00000043,   0.00000001,   0.00022922,  -0.00010146,  -0.00001741,  -0.00000158,   0.00000122,   0.00000010
  3.73866670,   0.99999502,  -0.00000383,   0.00005301,   0.00000003,   0.00000071,   0.00000001,   0.00022924,  -0.00010148,  -0.00001742,  -0.00000158,   0.00000123,   0.00000010
  3.80525000,   0.99999565,  -0.00000246,   0.00001375,   0.00000003,   0.00000016,   0.00000001,   0.00022926,  -0.00010150,  -0.00001742,  -0.00000158,   0.00000123,   0.00000010
  3.87183330,   0.99999504,  -0.00000211,   0.00001967,   0.00000003,   0.00000023,   0.00000001,   0.00022929,  -0.00010151,  -0.00001742,  -0.00000158,   0.00000123,   0.00000010
  3.93841670,   0.99999524,  -0.00000178,   0.00001005,   0.00000003,   0.00000010,   0.00000001,   0.00022931,  -0.00010153,  -0.00001743,  -0.00000158,   0.00000123,   0.00000010
  4.00500000,   0.99999557,  -0.00000195,   0.00000609,   0.00000003,   0.00000004,   0.00000001,   0.00022933,  -0.00010155,  -0.00001743,  -0.00000158,   0.00000123,   0.00000010
  4.07158330,   0.99999716,  -0.00000174,  -0.00003199,   0.00000003,  -0.00000050,   0.00000001,   0.00022935,  -0.00010157,  -0.00001743,  -0.00000158,   0.00000123,   0.00000010
  4.13816670,   0.99999516,  -0.00000197,   0.00001485,   0.00000003,   0.00000017,   0.00000001,   0.00022937,  -0.00010158,  -0.00001743,  -0.00000158,   0.00000123,   0.00000010
  4.20475000,   0.99999504,  -0.00000187,   0.00001632,   0.00000003,   0.00000019,   0.00000001,   0.00022940,  -0.00010160,  -0.00001744,  -0.00000158,   0.00000123,   0.00000010
  4.27133330,   0.99999495,  -0.00000167,   0.00001438,   0.00000003,   0.00000016,   0.00000001,   0.00022942,  -0.00010162,  -0.00001744,  -0.00000158,   0.00000123,   0.00000010
  4.33791670,   0.99999475,  -0.00000204,   0.00002544,   0.00000003,   0.00000031,   0.00000001,   0.00022944,  -0.00010164,  -0.00001744,  -0.00000158,   0.00000123,   0.00000010
  4.40450000,   0.99999500,  -0.00000256,   0.00002953,   0.00000003,   0.00000037,   0.00000001,   0.00022946,  -0.00010165,  -0.00001744,  -0.00000158,   0.00000123,   0.00000010
  4.47108330,   0.99999551,  -0.00000208,   0.00000948,   0.00000003,   0.00000009,   0.00000001,   0.00022948,  -0.00010167,  -0.00001745,  -0.00000158,   0.00000123,   0.00000010
  4.53766670,   0.99999578,  -0.00000222,   0.00000651,   0.00000003,   0.00000004,   0.00000001,   0.00022950,  -0.00010169,  -0.00001745,  -0.00000158,   0.00000123,   0.00000010
  4.60425000,   0.99999511,  -0.00000227,   0.00002204,   0.00000003,   0.00000027,   0.00000001,   0.00022952,  -0.00010170,  -0.00001745,  -0.00000158,   0.00000123,   0.00000010
  4.67083330,   0.99999512,  -0.00000199,   0.00001674,   0.00000003,   0.00000019,   0.00000001,   0.00022954,  -0.00010172,  -0.00001745,  -0.00000158,   0.00000123,   0.00000010
  4.73741670,   0.99999480,  -0.00000204,   0.00002415,   0.00000003,   0.00000030,   0.00000001,   0.00022956,  -0.00010173,  -0.00001745,  -0.00000158,   0.00000123,   0.00000010
  4.80400000,   0.99999481,  -0.00000244,   0.00003170,   0.00000003,   0.00000040,   0.00000001,   0.00022958,  -0.00010175,  -0.00001746,  -0.00000158,   0.00000123,   0.00000010
  4.87058330,   0.99999455,  -0.00000325,   0.00005246,   0.00000003,   0.00000070,   0.00000001,   0.00022960,  -0.00010177,  -0.00001746,  -0.00000158,   0.00000123,   0.00000010
  4.93716670,   0.99999547,  -0.00000232,   0.00001472,   0.00000003,   0.00000016,   0.00000001,   0.00022962,  -0.00010178,  -0.00001746,  -0.00000158,   0.00000123,   0.00000010
  5.00375000,   0.99999570,  -0.00000215,   0.00000518,   0.00000003,   0.00000002,   0.00000002,   0.00022964,  -0.00010180,  -0.00001747,  -0.00000158,   0.00000123,   0.00000010
  5.07033330,   0.99999430,  -0.00000283,   0.00004995,   0.00000003,   0.00000065,   0.00000001,   0.00022966,  -0.00010181,  -0.00001747,  -0.00000158,   0.00000123,   0.00000010
  5.13691670,   0.99999525,  -0.00000249,   0.00002338,   0.00000003,   0.00000029,   0.00000002,   0.00022968,  -0.00010183,  -0.00001747,  -0.00000158,   0.00000123,   0.00000010
  5.20350000,   0.99999509,  -0.00000226,   0.00002119,   0.00000003,   0.00000026,   0.00000001,   0.00022970,  -0.00010184,  -0.00001747,  -0.00000158,   0.00000123,   0.00000010
  5.27008330,   0.99999530,  -0.00000174,   0.00000729,   0.00000003,   0.00000006,   0.00000001,   0.00022972,  -0.00010185,  -0.00001748,  -0.00000158,   0.00000123,   0.00000010
  5.33666670,   0.99999517,  -0.00000200,   0.00001502,   0.00000003,   0.00000016,   0.00000001,   0.00022974,  -0.00010187,  -0.00001748,  -0.00000158,   0.00000123,   0.00000010
  5.40325000,   0.99999530,  -0.00000192,   0.00001061,   0.00000003,   0.00000010,   0.00000001,   0.00022976,  -0.00010188,  -0.00001748,  -0.00000158,   0.00000124,   0.00000010
  5.46983330,   0.99999179,  -0.00000240,   0.00009983,   0.00000003,   0.00000136,   0.00000001,   0.00022978,  -0.00010190,  -0.00001748,  -0.00000158,   0.00000124,   0.00000010
  5.53641670,   0.99999475,  -0.00000176,   0.00001961,   0.00000003,   0.00000023,   0.00000001,   0.00022980,  -0.00010191,  -0.00001748,  -0.00000158,   0.00000124,   0.00000010
  5.60300000,   0.99999515,  -0.00000183,   0.00001189,   0.00000003,   0.00000012,   0.00000001,   0.00022981,  -0.00010193,  -0.00001749,  -0.00000158,   0.00000124,   0.00000010
  5.66958330,   0.99999607,  -0.00000198,  -0.00000514,   0.00000003,  -0.00000012,   0.00000001,   0.00022983,  -0.00010194,  -0.00001749,  -0.00000158,   0.00000124,   0.00000010
  5.73616670,   0.99999497,  -0.00000270,   0.00003190,   0.00000003,   0.00000041,   0.00000001,   0.00022985,  -0.00010195,  -0.00001749,  -0.00000158,   0.00000124,   0.00000010
  5.80275000,   0.99999534,  -0.00000276,   0.00002550,   0.00000003,   0.00000033,   0.00000001,   0.00022987,  -0.00010197,  -0.00001749,  -0.00000158,   0.00000124,   0.00000010
  5.86933330,   0.99999515,  -0.00000276,   0.00002920,   0.00000003,   0.00000038,   0.00000001,   0.00022989,  -0.00010198,  -0.00001750,  -0.00000158,   0.00000124,   0.00000010
  5.93591670,   0.99999432,  -0.00000331,   0.00005881,   0.00000004,   0.00000080,   0.00000001,   0.00022990,  -0.00010199,  -0.00001750,  -0.00000158,   0.00000124,   0.00000010
  6.00250000,   0.99999582,  -0.00000209,   0.00000281,   0.00000003,   0.00000001,   0.00000001,   0.00022992,  -0.00010201,  -0.00001750,  -0.00000158,   0.00000124,   0.00000010
  6.06908330,   0.99999540,  -0.00000228,   0.00001357,   0.00000003,   0.00000014,   0.00000001,   0.00022994,  -0.00010202,  -0.00001751,  -0.00000158,   0.00000124,   0.00000010
  6.13566670,   0.99999349,  -0.00000341,   0.00007858,   0.00000003,   0.00000106,   0.00000000,   0.00022996,  -0.00010203,  -0.00001750,  -0.00000158,   0.00000124,   0.00000010
  6.20225000,   0.99999478,  -0.00000285,   0.00004115,   0.00000004,   0.00000054,   0.00000000,   0.00022997,  -0.00010205,  -0.00001751,  -0.00000158,   0.00000124,   0.00000010
  6.26883330,   0.99999417,  -0.00000293,   0.00005329,   0.00000003,   0.00000071,   0.00000000,   0.00022999,  -0.00010206,  -0.00001751,  -0.00000158,   0.00000124,   0.00000010
  6.33541670,   0.99999559,  -0.00000189,   0.00000273,   0.00000003,  -0.00000000,   0.00000001,   0.00023001,  -0.00010207,  -0.00001752,  -0.00000158,   0.00000124,   0.00000010
  6.40200000,   0.99999589,  -0.00000177,  -0.00000673,   0.00000003,  -0.00000013,   0.00000001,   0.00023003,  -0.00010208,  -0.00001752,  -0.00000158,   0.00000124,   0.00000010
  6.46858330,   0.99999602,  -0.00000130,  -0.00001766,   0.00000003,  -0.00000029,   0.00000002,   0.00023004,  -0.00010209,  -0.00001752,  -0.00000158,   0.00000124,   0.00000010
  6.53516670,   0.99999783,  -0.00000027,  -0.00007672,   0.00000003,  -0.00000112,   0.00000003,   0.00023006,  -0.00010211,  -0.00001753,  -0.00000158,   0.00000124,   0.00000010
  6.60175000,   0.99999484,  -0.00000212,   0.00002352,   0.00000003,   0.00000029,   0.00000001,   0.00023008,  -0.00010212,  -0.00001752,  -0.00000158,   0.00000124,   0.00000009
  6.66833330,   0.99999549,  -0.00000188,   0.00000625,   0.00000003,   0.00000005,   0.00000000,   0.00023009,  -0.00010213,  -0.00001753,  -0.00000158,   0.00000124,   0.00000009
  6.73491670,   0.99999491,  -0.00000207,   0.00002121,   0.00000003,   0.00000026,   0.00000001,   0.00023011,  -0.00010214,  -0.00001753,  -0.00000158,   0.00000124,   0.00000009
  6.80150000,   0.99999505,  -0.00000195,   0.00001625,   0.00000003,   0.00000019,   0.00000001,   0.00023012,  -0.00010216,  -0.00001753,  -0.00000158,   0.00000125,   0.00000009
  6.86808330,   0.99999306,  -0.00000201,   0.00006323,   0.00000003,   0.00000085,   0.00000000,   0.00023014,  -0.00010217,  -0.00001753,  -0.00000158,   0.00000125,   0.00000009
  6.93466670,   0.99999477,  -0.00000178,   0.00001921,   0.00000003,   0.00000023,   0.00000001,   0.00023016,  -0.00010218,  -0.00001754,  -0.00000158,   0.00000125,   0.00000009
  7.00125000,   0.99999632,  -0.00000172,  -0.00001797,   0.00000003,  -0.00000030,   0.00000001,   0.00023017,  -0.00010219,  -0.00001754,  -0.00000159,   0.00000125,   0.00000009
  7.06783330,   0.99999391,  -0.00000323,   0.00006457,   0.00000003,   0.00000086,   0.00000000,   0.00023019,  -0.00010220,  -0.00001754,  -0.00000159,   0.00000125,   0.00000009
  7.13441670,   0.99999538,  -0.00000250,   0.00002055,   0.00000003,   0.00000025,   0.00000001,   0.00023020,  -0.00010221,  -0.00001754,  -0.00000159,   0.00000125,   0.00000009
  7.20100000,   0.99999666,  -0.00000186,  -0.00002208,   0.00000003,  -0.00000035,   0.00000001,   0.00023022,  -0.00010222,  -0.00001755,  -0.00000159,   0.00000125,   0.00000009
  7.26758330,   0.99999516,  -0.00000187,   0.00001243,   0.00000003,   0.00000014,   0.00000001,   0.00023024,  -0.00010223,  -0.00001755,  -0.00000159,   0.00000125,   0.00000009
  7.33416670,   0.99999280,  -0.00000294,   0.00008577,   0.00000003,   0.00000118,   0.00000000,   0.00023025,  -0.00010225,  -0.00001755,  -0.00000159,   0.00000125,   0.00000009
  7.40075000,   0.99999446,  -0.00000210,   0.00003245,   0.00000002,   0.00000042,   0.00000001,   0.00023027,  -0.00010226,  -0.00001755,  -0.00000159,   0.00000125,   0.00000009
  7.46733330,   0.99999564,  -0.00000143,  -0.00000656,   0.00000003,  -0.00000014,   0.00000001,   0.00023028,  -0.00010227,  -0.00001756,  -0.00000159,   0.00000125,   0.00000009
  7.53391670,   0.99999522,  -0.00000172,   0.00000848,   0.00000002,   0.00000007,   0.00000001,   0.00023030,  -0.00010228,  -0.00001756,  -0.00000159,   0.00000125,   0.00000009
  7.60050000,   0.99999448,  -0.00000243,   0.00003895,   0.00000002,   0.00000051,   0.00000001,   0.00023031,  -0.00010229,  -0.00001756,  -0.00000159,   0.00000125,   0.00000009
  7.66708330,   0.99999559,  -0.00000188,   0.00000389,   0.00000002,   0.00000002,   0.00000001,   0.00023033,  -0.00010230,  -0.00001757,  -0.00000159,   0.00000125,   0.00000009
  7.73366670,   0.99999533,  -0.00000223,   0.00001521,   0.00000002,   0.00000018,   0.00000001,   0.00023034,  -0.00010231,  -0.00001757,  -0.00000159,   0.00000125,   0.00000009
  7.80025000,   0.99999451,  -0.00000291,   0.00004696,   0.00000003,   0.00000062,   0.00000000,   0.00023036,  -0.00010232,  -0.00001757,  -0.00000159,   0.00000125,   0.00000009
  7.86683330,   0.99999573,  -0.00000192,   0.00000182,   0.00000002,  -0.00000001,   0.00000001,   0.00023037,  -0.00010233,  -0.00001757,  -0.00000159,   0.00000125,   0.00000009
  7.93341670,   0.99999545,  -0.00000204,   0.00000925,   0.00000002,   0.00000008,   0.00000001,   0.00023039,  -0.00010234,  -0.00001758,  -0.00000159,   0.00000125,   0.00000009
  8.00000000,   0.99999493,  -0.00000207,   0.00002190,   0.00000002,   0.00000027,   0.00000001,   0.00023040,  -0.00010235,  -0.00001758,  -0.00000159,   0.00000125,   0.00000009
  8.00025000,   0.97499206,   0.00000153,   0.00003864,  -0.00000001,   0.00000024,   0.00000002,   0.00022758,  -0.00010167,  -0.00001735,  -0.00000157,   0.00000124,   0.00000009
  8.00050000,   0.94999647,   0.00000063,   0.00003669,  -0.00000004,   0.00000024,   0.00000002,   0.00022437,  -0.00010075,  -0.00001708,  -0.00000155,   0.00000123,   0.00000009
  8.00075000,   0.92500382,  -0.00000416,   0.00002635,  -0.00000005,   0.00000050,  -0.00000002,   0.00022098,  -0.00009973,  -0.00001680,  -0.00000152,   0.00000121,   0.00000009
  8.00100000,   0.90000498,  -0.00000379,   0.00000660,  -0.00000002,   0.00000030,  -0.00000003,   0.00021745,  -0.00009864,  -0.00001651,  -0.00000150,   0.00000119,   0.00000009
  8.00125000,   0.87500146,  -0.00000015,  -0.00000132,   0.00000000,   0.00000017,  -0.00000002,   0.00021383,  -0.00009749,  -0.00001621,  -0.00000147,   0.00000117,   0.00000008
  8.00150000,   0.85000146,   0.00001549,   0.00007250,  -0.00000006,   0.00000074,  -0.00000001,   0.00021012,  -0.00009628,  -0.00001590,  -0.00000144,   0.00000115,   0.00000008
  8.00175000,   0.82500315,  -0.00000119,  -0.00000266,  -0.00000001,   0.00000006,  -0.00000001,   0.00020633,  -0.00009504,  -0.00001559,  -0.00000142,   0.00000113,   0.00000008
  8.00200000,   0.79999891,  -0.00000247,   0.00001918,   0.00000002,   0.00000030,  -0.00000001,   0.00020248,  -0.00009377,  -0.00001527,  -0.00000139,   0.00000111,   0.00000008
  8.00225000,   0.77499955,   0.00000883,   0.00005493,  -0.00000002,   0.00000058,  -0.00000000,   0.00019857,  -0.00009245,  -0.00001495,  -0.00000136,   0.00000109,   0.00000008
  8.00250000,   0.75000069,  -0.00000055,   0.00000139,   0.00000000,   0.00000009,  -0.00000000,   0.00019461,  -0.00009112,  -0.00001462,  -0.00000133,   0.00000107,   0.00000007
  8.00275000,   0.72499832,  -0.00000185,   0.00001790,   0.00000001,   0.00000027,   0.00000000,   0.00019061,  -0.00008975,  -0.00001429,  -0.00000131,   0.00000105,   0.00000007
  8.00300000,   0.69999935,  -0.00000067,   0.00000429,   0.00000002,   0.00000012,  -0.00000000,   0.00018656,  -0.00008837,  -0.00001396,  -0.00000128,   0.00000103,   0.00000007
  8.00325000,   0.67499971,  -0.00000236,   0.00001311,   0.00000002,   0.00000020,   0.00000000,   0.00018248,  -0.00008696,  -0.00001362,  -0.00000125,   0.00000101,   0.00000007
  8.00350000,   0.64999808,  -0.00000086,   0.00001449,   0.00000002,   0.00000022,  -0.00000000,   0.00017836,  -0.00008553,  -0.00001328,  -0.00000122,   0.00000099,   0.00000007
  8.00375000,   0.62499859,   0.00000524,   0.00004426,  -0.00000001,   0.00000047,   0.00000000,   0.00017420,  -0.00008408,  -0.00001294,  -0.00000119,   0.00000097,   0.00000006
  8.00400000,   0.60000014,  -0.00000146,   0.00001002,   0.00000001,   0.00000014,   0.00000000,   0.00017001,  -0.00008261,  -0.00001259,  -0.00000116,   0.00000094,   0.00000006
  8.00425000,   0.57499829,  -0.00000203,   0.00002112,   0.00000002,   0.00000028,   0.00000000,   0.00016579,  -0.00008113,  -0.00001224,  -0.00000113,   0.00000092,   0.00000006
  8.00450000,   0.54999897,   0.00000401,   0.00004017,  -0.00000000,   0.00000043,   0.00000000,   0.00016154,  -0.00007963,  -0.00001189,  -0.00000110,   0.00000090,   0.00000006
  8.00475000,   0.52499956,  -0.00000248,   0.00002991,   0.00000001,   0.00000034,   0.00000001,   0.00015726,  -0.00007811,  -0.00001154,  -0.00000107,   0.00000088,   0.00000006
  8.00500000,   0.49999834,  -0.00000152,   0.00001991,   0.00000002,   0.00000026,   0.00000000,   0.00015295,  -0.00007658,  -0.00001119,  -0.00000104,   0.00000085,   0.00000005
  8.00525000,   0.47499902,  -0.00000143,   0.00001494,   0.00000002,   0.00000021,   0.00000000,   0.00014861,  -0.00007503,  -0.00001083,  -0.00000101,   0.00000083,   0.00000005
  8.00550000,   0.44999881,  -0.00000133,   0.00001647,   0.00000002,   0.00000023,   0.00000000,   0.00014425,  -0.00007347,  -0.00001047,  -0.00000098,   0.00000081,   0.00000005
  8.00575000,   0.42499967,  -0.00000180,   0.00001477,   0.00000002,   0.00000022,   0.00000000,   0.00013986,  -0.00007189,  -0.00001011,  -0.00000095,   0.00000078,   0.00000005
  8.00600000,   0.40000024,  -0.00000312,   0.00002410,   0.00000002,   0.00000028,   0.00000001,   0.00013545,  -0.00007030,  -0.00000975,  -0.00000092,   0.00000076,   0.00000004
  8.00625000,   0.37499729,  -0.00000175,   0.00002578,   0.00000003,   0.00000030,   0.00000001,   0.00013101,  -0.00006870,  -0.00000938,  -0.00000089,   0.00000074,   0.00000004
  8.00650000,   0.34999858,  -0.00000197,   0.00001897,   0.00000003,   0.00000023,   0.00000001,   0.00012655,  -0.00006708,  -0.00000902,  -0.00000086,   0.00000071,   0.00000004
  8.00675000,   0.32499788,  -0.00000193,   0.00002409,   0.00000003,   0.00000029,   0.00000001,   0.00012207,  -0.00006545,  -0.00000865,  -0.00000083,   0.00000069,   0.00000004
  8.00700000,   0.29999852,  -0.00000177,   0.00001991,   0.00000003,   0.00000024,   0.00000001,   0.00011756,  -0.00006381,  -0.00000828,  -0.00000080,   0.00000067,   0.00000004
  8.00725000,   0.27499810,  -0.00000186,   0.00002402,   0.00000003,   0.00000028,   0.00000001,   0.00011304,  -0.00006216,  -0.00000790,  -0.00000076,   0.00000064,   0.00000003
  8.00750000,   0.24999870,  -0.00000162,   0.00001942,   0.00000003,   0.00000023,   0.00000001,   0.00010849,  -0.00006049,  -0.00000753,  -0.00000073,   0.00000062,   0.00000003
  8.00775000,   0.22499898,  -0.00000176,   0.00001927,   0.00000003,   0.00000023,   0.00000001,   0.00010393,  -0.00005882,  -0.00000716,  -0.00000070,   0.00000060,   0.00000003
  8.00800000,   0.19999893,  -0.00000164,   0.00001959,   0.00000002,   0.00000024,   0.00000001,   0.00009935,  -0.00005713,  -0.00000678,  -0.00000067,   0.00000057,   0.00000003
  8.00825000,   0.17499904,  -0.00000167,   0.00001988,   0.00000002,   0.00000024,   0.00000001,   0.00009474,  -0.00005543,  -0.00000640,  -0.00000064,   0.00000055,   0.00000002
  8.00850000,   0.14999873,  -0.00000185,   0.00002382,   0.00000002,   0.00000029,   0.00000001,   0.00009012,  -0.00005373,  -0.00000602,  -0.00000060,   0.00000052,   0.00000002
  8.00875000,   0.12499875,  -0.00000174,   0.00002376,   0.00000002,   0.00000029,   0.00000000,   0.00008548,  -0.00005201,  -0.00000564,  -0.00000057,   0.00000050,   0.00000002
  8.00900000,   0.09999956,  -0.00000218,   0.00002221,   0.00000002,   0.00000027,   0.00000001,   0.00008083,  -0.00005028,  -0.00000526,  -0.00000054,   0.00000047,   0.00000002
  8.00925000,   0.07499976,  -0.00000234,   0.00002283,   0.00000002,   0.00000028,   0.00000001,   0.00007615,  -0.00004855,  -0.00000488,  -0.00000051,   0.00000045,   0.00000001
  8.00950000,   0.04999949,  -0.00000194,   0.00002271,   0.00000002,   0.00000028,   0.00000001,   0.00007146,  -0.00004680,  -0.00000449,  -0.00000047,   0.00000043,   0.00000001
  8.00975000,   0.02499986,  -0.00000208,   0.00002206,   0.00000002,   0.00000027,   0.00000001,   0.00006676,  -0.00004505,  -0.00000411,  -0.00000044,   0.00000040,   0.00000001
  8.01000000,  -0.00000000,  -0.00000207,   0.00002199,   0.00000002,   0.00000027,   0.00000001,   0.00006204,  -0.00004328,  -0.00000372,  -0.00000041,   0.00000037,   0.00000001
  8.14316670,  -0.00000000,  -0.00000207,   0.00002200,   0.00000002,   0.00000027,   0.00000001,   0.00000902,  -0.00000820,  -0.00000039,  -0.00000005,   0.00000007,   0.00000000
  8.27633330,  -0.00000000,  -0.00000207,   0.00002200,   0.00000002,   0.00000027,   0.00000001,   0.00000467,  -0.00000419,  -0.00000030,  -0.00000003,   0.00000005,   0.00000000
  8.40950000,  -0.00000000,  -0.00000207,   0.00002198,   0.00000002,   0.00000027,   0.00000001,   0.00000333,  -0.00000287,  -0.00000028,  -0.00000002,   0.00000004,   0.00000000
  8.54266670,  -0.00000000,  -0.00000207,   0.00002196,   0.00000002,   0.00000027,   0.00000001,   0.00000287,  -0.00000240,  -0.00000028,  -0.00000002,   0.00000004,   0.00000000
  8.67583330,  -0.00000000,  -0.00000207,   0.00002198,   0.00000002,   0.00000027,   0.00000001,   0.00000269,  -0.00000220,  -0.00000029,  -0.00000002,   0.00000004,   0.00000000
  8.80900000,  -0.00000000,  -0.00000207,   0.00002199,   0.00000002,   0.00000027,   0.00000001,   0.00000260,  -0.00000210,  -0.00000029,  -0.00000002,   0.00000004,   0.00000000
  8.94216670,  -0.00000000,  -0.00000207,   0.00002201,   0.00000002,   0.00000027,   0.00000001,   0.00000254,  -0.00000203,  -0.00000029,  -0.00000002,   0.00000004,   0.00000000
  9.07533330,  -0.00000000,  -0.00000207,   0.00002197,   0.00000002,   0.00000027,   0.00000001,   0.00000249,  -0.00000198,  -0.00000029,  -0.00000002,   0.00000004,   0.00000000
  9.20850000,  -0.00000000,  -0.00000207,   0.00002198,   0.00000002,   0.00000027,   0.00000001,   0.00000245,  -0.00000193,  -0.00000029,  -0.00000002,   0.00000004,   0.00000000
  9.34166670,  -0.00000000,  -0.00000207,   0.00002199,   0.00000002,   0.00000027,   0.00000001,   0.00000241,  -0.00000189,  -0.00000029,  -0.00000001,   0.00000004,   0.00000000
  9.47483330,  -0.00000000,  -0.00000207,   0.00002201,   0.00000002,   0.00000027,   0.00000001,   0.00000237,  -0.00000185,  -0.00000030,  -0.00000001,   0.00000004,   0.00000000
  9.60800000,  -0.00000000,  -0.00000207,   0.00002200,   0.00000002,   0.00000027,   0.00000001,   0.00000234,  -0.00000181,  -0.00000030,  -0.00000001,   0.00000004,   0.00000000
  9.74116670,  -0.00000000,  -0.00000207,   0.00002197,   0.00000002,   0.00000027,   0.00000001,   0.00000230,  -0.00000177,  -0.00000030,  -0.00000001,   0.00000004,   0.00000000
  9.87433330,  -0.00000000,  -0.00000207,   0.00002197,   0.00000002,   0.00000027,   0.00000001,   0.00000227,  -0.00000173,  -0.00000030,  -0.00000001,   0.00000004,   0.00000000
 10.00750000,  -0.00000000,  -0.00000207,   0.00002199,   0.00000002,   0.00000027,   0.00000001,   0.00000223,  -0.00000170,  -0.00000030,  -0.00000001,   0.00000004,   0.00000000
 10.14066700,  -0.00000001,  -0.00000208,   0.00002200,   0.00000002,   0.00000027,   0.00000001,   0.00000220,  -0.00000167,  -0.00000030,  -0.00000001,   0.00000004,   0.00000000
 10.27383300,  -0.00000001,  -0.00000207,   0.00002200,   0.00000002,   0.00000027,   0.00000001,   0.00000217,  -0.00000164,  -0.00000030,  -0.00000001,   0.00000004,   0.00000000
 10.40700000,  -0.00000001,  -0.00000207,   0.00002199,   0.00000002,   0.00000027,   0.00000001,   0.00000214,  -0.00000161,  -0.00000030,  -0.00000001,   0.00000004,   0.00000000
 10.54016700,  -0.00000001,  -0.00000208,   0.00002199,   0.00000002,   0.00000027,   0.00000001,   0.00000211,  -0.00000158,  -0.00000030,  -0.00000001,   0.00000004,   0.00000000
 10.67333300,  -0.00000001,  -0.00000208,   0.00002200,   0.00000002,   0.00000027,   0.00000001,   0.00000208,  -0.00000155,  -0.00000030,  -0.00000001,   0.00000004,   0.00000000
 10.80650000,  -0.00000001,  -0.00000208,   0.00002200,   0.00000002,   0.00000027,   0.00000001,   0.00000206,  -0.00000152,  -0.00000030,  -0.00000001,   0.00000004,   0.00000000
 10.93966700,  -0.00000001,  -0.00000208,   0.00002203,   0.00000002,   0.00000027,   0.00000001,   0.00000203,  -0.00000149,  -0.00000030,  -0.00000001,   0.00000004,   0.00000000
 11.07283300,  -0.00000001,  -0.00000208,   0.00002201,   0.00000002,   0.00000027,   0.00000001,   0.00000200,  -0.00000147,  -0.00000030,  -0.00000001,   0.00000004,   0.00000000
 11.20600000,  -0.00000001,  -0.00000208,   0.00002201,   0.00000002,   0.00000027,   0.00000001,   0.00000198,  -0.00000144,  -0.00000030,  -0.00000001,   0.00000004,   0.00000000
 11.33916700,  -0.00000001,  -0.00000208,   0.00002200,   0.00000002,   0.00000027,   0.00000001,   0.00000195,  -0.00000142,  -0.00000030,  -0.00000001,   0.00000004,   0.00000000
 11.47233300,  -0.00000001,  -0.00000208,   0.00002201,   0.00000002,   0.00000027,   0.00000001,   0.00000193,  -0.00000139,  -0.00000030,  -0.00000001,   0.00000004,   0.00000000
 11.60550000,  -0.00000001,  -0.00000208,   0.00002201,   0.00000002,   0.00000027,   0.00000001,   0.00000191,  -0.00000137,  -0.00000030,  -0.00000001,   0.00000004,   0.00000000
 11.73866700,  -0.00000001,  -0.00000207,   0.00002202,   0.00000002,   0.00000027,   0.00000001,   0.00000188,  -0.00000134,  -0.00000030,  -0.00000001,   0.00000004,   0.00000000
 11.87183300,  -0.00000001,  -0.00000208,   0.00002200,   0.00000002,   0.00000027,   0.00000001,   0.00000186,  -0.00000132,  -0.00000030,  -0.00000001,   0.00000004,   0.00000000
 12.00500000,  -0.00000000,  -0.00000207,   0.00002197,   0.00000002,   0.00000027,   0.00000001,   0.00000184,  -0.00000130,  -0.00000030,  -0.00000001,   0.00000004,   0.00000000
 12.13816700,  -0.00000000,  -0.00000207,   0.00002199,   0.00000002,   0.00000027,   0.00000001,   0.00000182,  -0.00000128,  -0.00000030,  -0.00000001,   0.00000004,   0.00000000
 12.27133300,  -0.00000000,  -0.00000207,   0.00002199,   0.00000002,   0.00000027,   0.00000001,   0.00000179,  -0.00000126,  -0.00000030,  -0.00000001,   0.00000004,   0.00000000
 12.40450000,  -0.00000000,  -0.00000207,   0.00002199,   0.00000002,   0.00000027,   0.00000001,   0.00000177,  -0.00000124,  -0.00000030,  -0.00000001,   0.00000004,   0.00000000
 12.53766700,  -0.00000000,  -0.00000207,   0.00002199,   0.00000002,   0.00000027,   0.00000001,   0.00000175,  -0.00000122,  -0.00000030,  -0.00000001,   0.00000004,   0.00000000
 12.67083300,  -0.00000000,  -0.00000207,   0.00002199,   0.00000002,   0.00000027,   0.00000001,   0.00000173,  -0.00000120,  -0.00000030,  -0.00000001,   0.00000004,   0.00000000
 12.80400000,  -0.00000000,  -0.00000207,   0.00002199,   0.00000002,   0.00000027,   0.00000001,   0.00000171,  -0.00000118,  -0.00000030,  -0.00000001,   0.00000004,   0.00000000
 12.93716700,  -0.00000000,  -0.00000207,   0.00002198,   0.00000002,   0.00000027,   0.00000001,   0.00000170,  -0.00000116,  -0.00000030,  -0.00000001,   0.00000004,   0.00000000
 13.07033300,  -0.00000000,  -0.00000207,   0.00002198,   0.00000002,   0.00000027,   0.00000001,   0.00000168,  -0.00000114,  -0.00000030,  -0.00000001,   0.00000004,   0.00000000
 13.20350000,  -0.00000000,  -0.00000207,   0.00002199,   0.00000002,   0.00000027,   0.00000001,   0.00000166,  -0.00000112,  -0.00000030,  -0.00000001,   0.00000004,   0.00000000
 13.33666700,  -0.00000000,  -0.00000207,   0.00002199,   0.00000002,   0.00000027,   0.00000001,   0.00000164,  -0.00000111,  -0.00000030,  -0.00000001,   0.00000004,   0.00000000
 13.46983300,  -0.00000001,  -0.00000208,   0.00002200,   0.00000002,   0.00000027,   0.00000001,   0.00000162,  -0.00000109,  -0.00000030,  -0.00000001,   0.00000004,   0.00000000
 13.60300000,  -0.00000001,  -0.00000208,   0.00002199,   0.00000002,   0.00000027,   0.00000001,   0.00000161,  -0.00000107,  -0.00000030,  -0.00000001,   0.00000004,   0.00000000
 13.73616700,  -0.00000001,  -0.00000208,   0.00002200,   0.00000002,   0.00000027,   0.00000001,   0.00000159,  -0.00000106,  -0.00000030,  -0.00000001,   0.00000004,   0.00000000
 13.86933300,  -0.00000001,  -0.00000208,   0.00002198,   0.00000002,   0.00000027,   0.00000001,   0.00000157,  -0.00000104,  -0.00000029,  -0.00000001,   0.00000004,   0.00000000
 14.00250000,  -0.00000001,  -0.00000208,   0.00002200,   0.00000002,   0.00000027,   0.00000001,   0.00000156,  -0.00000103,  -0.00000029,  -0.00000001,   0.00000004,   0.00000000
 14.13566700,  -0.00000001,  -0.00000208,   0.00002196,   0.00000002,   0.00000027,   0.00000001,   0.00000154,  -0.00000101,  -0.00000029,  -0.00000001,   0.00000004,   0.00000000
 14.26883300,  -0.00000001,  -0.00000208,   0.00002198,   0.00000002,   0.00000027,   0.00000001,   0.00000153,  -0.00000100,  -0.00000029,  -0.00000001,   0.00000004,   0.00000000
 14.40200000,  -0.00000001,  -0.00000208,   0.00002198,   0.00000002,   0.00000027,   0.00000001,   0.00000151,  -0.00000098,  -0.00000029,  -0.00000001,   0.00000004,   0.00000000
 14.53516700,  -0.00000001,  -0.00000208,   0.00002198,   0.00000002,   0.00000027,   0.00000001,   0.00000150,  -0.00000097,  -0.00000029,  -0.00000001,   0.00000004,   0.00000000
 14.66833300,  -0.00000001,  -0.00000208,   0.00002198,   0.00000002,   0.00000027,   0.00000001,   0.00000148,  -0.00000096,  -0.00000029,  -0.00000001,   0.00000004,   0.00000000
 14.80150000,  -0.00000000,  -0.00000208,   0.00002195,   0.00000002,   0.00000027,   0.00000001,   0.00000147,  -0.00000094,  -0.00000029,  -0.00000001,   0.00000004,   0.00000000
 14.93466700,  -0.00000001,  -0.00000208,   0.00002197,   0.00000002,   0.00000027,   0.00000001,   0.00000146,  -0.00000093,  -0.00000029,  -0.00000001,   0.00000004,   0.00000000
 15.06783300,  -0.00000001,  -0.00000208,   0.00002197,   0.00000002,   0.00000027,   0.00000001,   0.00000144,  -0.00000092,  -0.00000029,  -0.00000001,   0.00000004,   0.00000000
 15.20100000,  -0.00000001,  -0.00000207,   0.00002197,   0.00000002,   0.00000027,   0.00000001,   0.00000143,  -0.00000090,  -0.00000029,  -0.00000001,   0.00000004,   0.00000000
 15.33416700,  -0.00000001,  -0.00000208,   0.00002197,   0.00000002,   0.00000027,   0.00000001,   0.00000142,  -0.00000089,  -0.00000029,  -0.00000001,   0.00000004,   0.00000000
 15.46733300,  -0.00000001,  -0.00000208,   0.00002198,   0.00000002,   0.00000027,   0.00000001,   0.00000140,  -0.00000088,  -0.00000029,  -0.00000001,   0.00000004,   0.00000000
 15.60050000,  -0.00000001,  -0.00000208,   0.00002198,   0.00000002,   0.00000027,   0.00000001,   0.00000139,  -0.00000087,  -0.00000029,  -0.00000001,   0.00000004,   0.00000000
 15.73366700,  -0.00000001,  -0.00000208,   0.00002197,   0.00000002,   0.00000027,   0.00000001,   0.00000138,  -0.00000086,  -0.00000029,  -0.00000001,   0.00000004,   0.00000000
 15.86683300,  -0.00000001,  -0.00000208,   0.00002197,   0.00000002,   0.00000027,   0.00000001,   0.00000137,  -0.00000085,  -0.00000029,  -0.00000001,   0.00000004,   0.00000000
 16.00000000,  -0.00000001,  -0.00000208,   0.00002197,   0.00000002,   0.00000027,   0.00000001,   0.00000136,  -0.00000084,  -0.00000029,  -0.00000001,   0.00000004,   0.00000000
