Time (m)    , Stress_xx (MPa), Stress_yy (MPa), Stress_zz (MPa), Stress_xy (MPa), Stress_xz (MPa), Stress_yz (MPa), Strain_xx   , Strain_yy   , Strain_zz   , Strain_xy   , Strain_xz   , Strain_yz   
  0.00000000,   0.00000000,   0.00000000,   0.00000000,   0.00000000,   0.00000000,   0.00000000,   0.00000000,   0.00000000,   0.00000000,   0.00000000,   0.00000000,   0.00000000
  0.00050000,   0.00000000,   0.00000000,   0.05000014,   0.00000000,   0.00000000,  -0.00000000,  -0.00000087,  -0.00000098,   0.00000264,  -0.00000000,  -0.00000024,   0.00000002
  0.00100000,   0.00000018,   0.00000028,   0.10000296,   0.00000001,   0.00000012,  -0.00000000,  -0.00000177,  -0.00000201,   0.00000533,  -0.00000001,  -0.00000050,   0.00000004
  0.00150000,   0.00000031,   0.00000045,   0.15000135,   0.00000001,   0.00000008,  -0.00000000,  -0.00000268,  -0.00000306,   0.00000803,  -0.00000001,  -0.00000076,   0.00000007
  0.00200000,   0.00000026,   0.00000054,   0.19999993,   0.00000001,   0.00000013,   0.00000000,  -0.00000359,  -0.00000411,   0.00001074,  -0.00000002,  -0.00000102,   0.00000009
  0.00250000,  -0.00000014,   0.00000078,   0.25000095,   0.00000000,   0.00000019,  -0.00000000,  -0.00000449,  -0.00000516,   0.00001345,  -0.00000002,  -0.00000128,   0.00000011
  0.00300000,  -0.00000005,   0.00000049,   0.29999996,   0.00000000,   0.00000009,  -0.00000000,  -0.00000540,  -0.00000621,   0.00001617,  -0.00000002,  -0.00000154,   0.00000013
  0.00350000,  -0.00000005,   0.00000024,   0.35000038,   0.00000000,   0.00000005,  -0.00000000,  -0.00000631,  -0.00000726,   0.00001888,  -0.00000003,  -0.00000180,   0.00000016
  0.00400000,  -0.00000066,  -0.00000122,   0.40002977,   0.00000000,   0.00000027,  -0.00000000,  -0.00000722,  -0.00000832,   0.00002159,  -0.00000003,  -0.00000206,   0.00000018
  0.00450000,   0.00000007,  -0.00000020,   0.45000033,  -0.00000000,  -0.00000006,  -0.00000000,  -0.00000813,  -0.00000937,   0.00002431,  -0.00000004,  -0.00000233,   0.00000020
  0.00500000,   0.00000011,   0.00000026,   0.49999205,  -0.00000000,  -0.00000007,   0.00000000,  -0.00000904,  -0.00001043,   0.00002702,  -0.00000004,  -0.00000259,   0.00000023
  0.00550000,  -0.00000018,  -0.00000004,   0.55000026,  -0.00000001,   0.00000005,   0.00000000,  -0.00000995,  -0.00001148,   0.00002973,  -0.00000005,  -0.00000285,   0.00000025
  0.00600000,   0.00000091,   0.00000044,   0.59997774,  -0.00000000,  -0.00000044,  -0.00000000,  -0.00001085,  -0.00001254,   0.00003245,  -0.00000005,  -0.00000311,   0.00000027
  0.00650000,  -0.00000012,  -0.00000014,   0.65000085,  -0.00000000,  -0.00000001,  -0.00000000,  -0.00001176,  -0.00001359,   0.00003516,  -0.00000005,  -0.00000337,   0.00000029
  0.00700000,  -0.00000006,  -0.00000003,   0.69999936,  -0.00000000,   0.00000002,  -0.00000000,  -0.00001267,  -0.00001465,   0.00003788,  -0.00000006,  -0.00000363,   0.00000032
  0.00750000,  -0.00000107,  -0.00000086,   0.75002761,   0.00000000,   0.00000025,   0.00000000,  -0.00001358,  -0.00001571,   0.00004059,  -0.00000006,  -0.00000390,   0.00000034
  0.00800000,   0.00000002,  -0.00000002,   0.79999944,  -0.00000000,  -0.00000004,  -0.00000000,  -0.00001449,  -0.00001676,   0.00004331,  -0.00000007,  -0.00000416,   0.00000036
  0.00850000,   0.00000018,   0.00000016,   0.84999548,  -0.00000000,  -0.00000001,  -0.00000000,  -0.00001540,  -0.00001782,   0.00004602,  -0.00000007,  -0.00000442,   0.00000038
  0.00900000,  -0.00000000,   0.00000001,   0.90000078,   0.00000000,   0.00000005,   0.00000000,  -0.00001631,  -0.00001887,   0.00004874,  -0.00000008,  -0.00000468,   0.00000041
  0.00950000,   0.00000052,   0.00000044,   0.94998811,  -0.00000000,  -0.00000027,  -0.00000002,  -0.00001722,  -0.00001993,   0.00005145,  -0.00000008,  -0.00000494,   0.00000043
  0.01000000,  -0.00000005,  -0.00000003,   1.00000220,   0.00000000,   0.00000001,  -0.00000000,  -0.00001813,  -0.00002098,   0.00005417,  -0.00000008,  -0.00000521,   0.00000045
  0.07658333,   0.00000069,  -0.00000015,   0.99999331,   0.00000007,  -0.00000075,  -0.00000000,  -0.00001854,  -0.00002120,   0.00005471,  -0.00000008,  -0.00000534,   0.00000046
  0.14316667,  -0.00000114,  -0.00000141,   0.99999867,  -0.00000002,  -0.00000019,   0.00000002,  -0.00001887,  -0.00002125,   0.00005507,  -0.00000009,  -0.00000543,   0.00000046
  0.20975000,  -0.00000155,  -0.00000155,   0.99999770,  -0.00000006,  -0.00000019,   0.00000002,  -0.00001916,  -0.00002128,   0.00005537,  -0.00000009,  -0.00000550,   0.00000047
  0.27633333,  -0.00000118,  -0.00000102,   0.99999848,  -0.00000006,  -0.00000014,   0.00000001,  -0.00001941,  -0.00002130,   0.00005562,  -0.00000009,  -0.00000557,   0.00000047
  0.34291667,  -0.00000733,   0.00000495,   1.00001490,  -0.00000009,  -0.00000492,  -0.00000004,  -0.00001962,  -0.00002132,   0.00005584,  -0.00000009,  -0.00000562,   0.00000047
  0.40950000,  -0.00000057,  -0.00000005,   1.00000610,  -0.00000004,  -0.00000025,   0.00000002,  -0.00001979,  -0.00002134,   0.00005602,  -0.00000009,  -0.00000567,   0.00000047
  0.47608333,  -0.00000472,   0.00000369,   1.00001520,  -0.00000005,  -0.00000249,   0.00000001,  -0.00001994,  -0.00002135,   0.00005618,  -0.00000009,  -0.00000571,   0.00000048
  0.54266667,  -0.00000550,   0.00000470,   1.00002510,  -0.00000004,  -0.00000420,  -0.00000002,  -0.00002007,  -0.00002136,   0.00005632,  -0.00000009,  -0.00000575,   0.00000048
  0.60925000,   0.00000009,   0.00000042,   1.00000120,  -0.00000001,  -0.00000011,   0.00000002,  -0.00002018,  -0.00002137,   0.00005643,  -0.00000009,  -0.00000578,   0.00000048
  0.67583333,  -0.00000265,   0.00000215,   1.00000890,  -0.00000002,  -0.00000108,   0.00000000,  -0.00002027,  -0.00002138,   0.00005653,  -0.00000009,  -0.00000581,   0.00000048
  0.74241667,  -0.00000337,   0.00000278,   1.00001340,  -0.00000002,  -0.00000242,  -0.00000002,  -0.00002035,  -0.00002139,   0.00005662,  -0.00000009,  -0.00000584,   0.00000048
  0.80900000,  -0.00000388,   0.00000177,   1.00004110,  -0.00000002,  -0.00000233,  -0.00000003,  -0.00002042,  -0.00002140,   0.00005669,  -0.00000009,  -0.00000586,   0.00000048
  0.87558333,  -0.00000066,   0.00000134,   1.00000020,  -0.00000001,  -0.00000096,   0.00000001,  -0.00002047,  -0.00002141,   0.00005675,  -0.00000009,  -0.00000588,   0.00000048
  0.94216667,  -0.00000044,   0.00000098,   1.00000220,  -0.00000001,  -0.00000039,   0.00000002,  -0.00002052,  -0.00002142,   0.00005680,  -0.00000009,  -0.00000589,   0.00000048
  1.00875000,  -0.00000120,   0.00000137,   1.00000580,  -0.00000001,  -0.00000092,  -0.00000000,  -0.00002056,  -0.00002143,   0.00005685,  -0.00000009,  -0.00000591,   0.00000048
  1.07533330,  -0.00000172,   0.00000101,   1.00001760,  -0.00000001,  -0.00000110,  -0.00000001,  -0.00002060,  -0.00002143,   0.00005689,  -0.00000009,  -0.00000592,   0.00000048
  1.14191670,  -0.00000028,   0.00000069,   0.99999931,  -0.00000000,  -0.00000050,   0.00000000,  -0.00002063,  -0.00002144,   0.00005693,  -0.00000009,  -0.00000593,   0.00000048
  1.20850000,  -0.00000083,   0.00000071,   1.00000770,  -0.00000001,  -0.00000047,   0.00000000,  -0.00002065,  -0.00002145,   0.00005696,  -0.00000009,  -0.00000595,   0.00000049
  1.27508330,  -0.00000094,   0.00000073,   1.00000810,  -0.00000001,  -0.00000069,   0.00000000,  -0.00002068,  -0.00002145,   0.00005699,  -0.00000009,  -0.00000596,   0.00000049
  1.34166670,  -0.00000103,   0.00000048,   1.00001250,  -0.00000001,  -0.00000067,   0.00000000,  -0.00002070,  -0.00002146,   0.00005701,  -0.00000009,  -0.00000597,   0.00000049
  1.40825000,  -0.00000025,   0.00000028,   1.00000090,  -0.00000000,  -0.00000026,   0.00000000,  -0.00002071,  -0.00002146,   0.00005703,  -0.00000009,  -0.00000597,   0.00000049
  1.47483330,  -0.00000023,   0.00000016,   1.00000210,  -0.00000000,  -0.00000010,   0.00000000,  -0.00002072,  -0.00002147,   0.00005705,  -0.00000009,  -0.00000598,   0.00000049
  1.54141670,  -0.00000049,   0.00000026,   1.00000420,  -0.00000001,  -0.00000028,   0.00000000,  -0.00002074,  -0.00002147,   0.00005707,  -0.00000009,  -0.00000599,   0.00000049
  1.60800000,  -0.00000063,   0.00000015,   1.00000810,  -0.00000000,  -0.00000033,  -0.00000000,  -0.00002075,  -0.00002148,   0.00005708,  -0.00000009,  -0.00000600,   0.00000049
  1.67458330,  -0.00000016,   0.00000012,   1.00000160,  -0.00000000,  -0.00000013,   0.00000000,  -0.00002076,  -0.00002148,   0.00005709,  -0.00000009,  -0.00000600,   0.00000049
  1.74116670,   0.00000275,   0.00000064,   0.99993032,   0.00000001,  -0.00000063,   0.00000001,  -0.00002076,  -0.00002149,   0.00005710,  -0.00000009,  -0.00000601,   0.00000049
  1.80775000,   0.00000032,   0.00000018,   0.99999052,   0.00000000,  -0.00000008,   0.00000001,  -0.00002077,  -0.00002149,   0.00005712,  -0.00000009,  -0.00000602,   0.00000049
  1.87433330,  -0.00000009,   0.00000014,   1.00000110,   0.00000000,  -0.00000011,  -0.00000000,  -0.00002078,  -0.00002150,   0.00005713,  -0.00000009,  -0.00000602,   0.00000049
  1.94091670,  -0.00000007,   0.00000010,   1.00000150,   0.00000000,  -0.00000010,   0.00000000,  -0.00002078,  -0.00002150,   0.00005714,  -0.00000009,  -0.00000603,   0.00000049
  2.00750000,   0.00000193,   0.00000065,   0.99995045,   0.00000000,  -0.00000036,  -0.00000000,  -0.00002078,  -0.00002151,   0.00005714,  -0.00000009,  -0.00000603,   0.00000049
  2.07408330,  -0.00000005,  -0.00000002,   1.00000320,   0.00000000,   0.00000008,   0.00000000,  -0.00002079,  -0.00002151,   0.00005716,  -0.00000009,  -0.00000604,   0.00000049
  2.14066670,  -0.00000018,   0.00000007,   1.00000460,   0.00000000,  -0.00000012,   0.00000000,  -0.00002079,  -0.00002152,   0.00005716,  -0.00000009,  -0.00000604,   0.00000049
  2.20725000,  -0.00000003,   0.00000007,   1.00000110,   0.00000000,  -0.00000009,  -0.00000000,  -0.00002080,  -0.00002152,   0.00005717,  -0.00000009,  -0.00000605,   0.00000049
  2.27383330,   0.00000026,  -0.00000004,   0.99999760,   0.00000000,   0.00000013,   0.00000002,  -0.00002080,  -0.00002152,   0.00005718,  -0.00000009,  -0.00000605,   0.00000049
  2.34041670,   0.00000008,   0.00000006,   0.99999917,   0.00000000,  -0.00000001,   0.00000000,  -0.00002080,  -0.00002153,   0.00005719,  -0.00000009,  -0.00000606,   0.00000049
  2.40700000,   0.00000036,   0.00000032,   0.99998901,   0.00000000,  -0.00000028,  -0.00000001,  -0.00002081,  -0.00002153,   0.00005719,  -0.00000009,  -0.00000606,   0.00000049
  2.47358330,  -0.00000009,  -0.00000002,   1.00000310,   0.00000000,  -0.00000003,  -0.00000000,  -0.00002081,  -0.00002154,   0.00005720,  -0.00000009,  -0.00000607,   0.00000049
  2.54016670,   0.00000283,   0.00000174,   0.99991698,   0.00000000,  -0.00000110,  -0.00000002,  -0.00002081,  -0.00002154,   0.00005720,  -0.00000009,  -0.00000607,   0.00000049
  2.60675000,   0.00000037,   0.00000026,   0.99998916,   0.00000000,  -0.00000012,  -0.00000001,  -0.00002081,  -0.00002154,   0.00005721,  -0.00000009,  -0.00000607,   0.00000049
  2.67333330,   0.00000004,   0.00000004,   0.99999963,   0.00000000,  -0.00000006,  -0.00000000,  -0.00002082,  -0.00002155,   0.00005722,  -0.00000009,  -0.00000608,   0.00000049
  2.73991670,  -0.00000002,  -0.00000000,   1.00000120,   0.00000000,  -0.00000004,  -0.00000000,  -0.00002082,  -0.00002155,   0.00005723,  -0.00000009,  -0.00000608,   0.00000049
  2.80650000,   0.00000031,   0.00000019,   0.99999164,   0.00000000,  -0.00000002,   0.00000000,  -0.00002082,  -0.00002156,   0.00005723,  -0.00000009,  -0.00000608,   0.00000049
  2.87308330,  -0.00000010,  -0.00000006,   1.00000400,   0.00000000,   0.00000006,   0.00000000,  -0.00002082,  -0.00002156,   0.00005724,  -0.00000009,  -0.00000609,   0.00000049
  2.93966670,   0.00000241,   0.00000153,   0.99992906,   0.00000000,  -0.00000094,  -0.00000000,  -0.00002082,  -0.00002156,   0.00005724,  -0.00000009,  -0.00000609,   0.00000049
  3.00625000,   0.00000107,   0.00000070,   0.99996909,   0.00000001,  -0.00000044,   0.00000000,  -0.00002082,  -0.00002157,   0.00005725,  -0.00000009,  -0.00000610,   0.00000049
  3.07283330,  -0.00000048,  -0.00000029,   1.00001590,   0.00000000,   0.00000016,  -0.00000000,  -0.00002083,  -0.00002157,   0.00005726,  -0.00000009,  -0.00000610,   0.00000049
  3.13941670,  -0.00000017,  -0.00000012,   1.00000660,   0.00000000,   0.00000001,  -0.00000000,  -0.00002083,  -0.00002157,   0.00005726,  -0.00000009,  -0.00000610,   0.00000049
  3.20600000,  -0.00000008,  -0.00000005,   1.00000360,   0.00000000,   0.00000001,   0.00000000,  -0.00002083,  -0.00002158,   0.00005727,  -0.00000009,  -0.00000611,   0.00000049
  3.27258330,  -0.00000024,  -0.00000012,   1.00000770,   0.00000000,   0.00000015,  -0.00000001,  -0.00002083,  -0.00002158,   0.00005727,  -0.00000009,  -0.00000611,   0.00000049
  3.33916670,   0.00000011,   0.00000007,   0.99999797,   0.00000000,  -0.00000005,   0.00000000,  -0.00002083,  -0.00002158,   0.00005728,  -0.00000009,  -0.00000611,   0.00000049
  3.40575000,  -0.00000010,  -0.00000006,   1.00000430,   0.00000000,   0.00000002,  -0.00000000,  -0.00002084,  -0.00002159,   0.00005728,  -0.00000009,  -0.00000612,   0.00000049
  3.47233330,   0.00000135,   0.00000091,   0.99995946,   0.00000001,  -0.00000054,   0.00000000,  -0.00002084,  -0.00002159,   0.00005729,  -0.00000009,  -0.00000612,   0.00000049
  3.53891670,   0.00000014,   0.00000010,   0.99999627,   0.00000000,  -0.00000005,   0.00000000,  -0.00002084,  -0.00002159,   0.00005729,  -0.00000009,  -0.00000612,   0.00000049
  3.60550000,  -0.00000001,  -0.00000001,   1.00000160,   0.00000000,  -0.00000001,  -0.00000000,  -0.00002084,  -0.00002160,   0.00005730,  -0.00000009,  -0.00000613,   0.00000049
  3.67208330,   0.00000067,   0.00000050,   0.99997835,   0.00000001,  -0.00000026,   0.00000001,  -0.00002084,  -0.00002160,   0.00005730,  -0.00000009,  -0.00000613,   0.00000049
  3.73866670,  -0.00000013,  -0.00000007,   1.00000470,   0.00000000,   0.00000006,   0.00000000,  -0.00002085,  -0.00002160,   0.00005731,  -0.00000009,  -0.00000613,   0.00000049
  3.80525000,   0.00000002,   0.00000000,   1.00000090,   0.00000000,  -0.00000003,  -0.00000000,  -0.00002085,  -0.00002161,   0.00005732,  -0.00000009,  -0.00000614,   0.00000049
  3.87183330,  -0.00000090,  -0.00000050,   1.00002630,  -0.00000000,   0.00000046,   0.00000000,  -0.00002085,  -0.00002161,   0.00005732,  -0.00000009,  -0.00000614,   0.00000049
  3.93841670,   0.00000002,   0.00000002,   1.00000030,   0.00000000,  -0.00000000,   0.00000000,  -0.00002085,  -0.00002161,   0.00005733,  -0.00000009,  -0.00000614,   0.00000049
  4.00500000,  -0.00000005,  -0.00000004,   1.00000270,   0.00000000,   0.00000000,  -0.00000000,  -0.00002085,  -0.00002162,   0.00005733,  -0.00000009,  -0.00000615,   0.00000049
  4.07158330,   0.00000040,   0.00000032,   0.99998729,   0.00000000,  -0.00000013,   0.00000000,  -0.00002086,  -0.00002162,   0.00005734,  -0.00000009,  -0.00000615,   0.00000050
  4.13816670,  -0.00000010,  -0.00000006,   1.00000360,   0.00000000,   0.00000005,   0.00000000,  -0.00002086,  -0.00002162,   0.00005734,  -0.00000009,  -0.00000615,   0.00000050
  4.20475000,  -0.00000001,  -0.00000002,   1.00000150,   0.00000000,  -0.00000002,  -0.00000000,  -0.00002086,  -0.00002163,   0.00005735,  -0.00000009,  -0.00000615,   0.00000050
  4.27133330,  -0.00000051,  -0.00000027,   1.00001470,  -0.00000000,   0.00000028,   0.00000000,  -0.00002086,  -0.00002163,   0.00005735,  -0.00000009,  -0.00000616,   0.00000050
  4.33791670,  -0.00000000,   0.00000000,   1.00000080,   0.00000000,   0.00000000,  -0.00000000,  -0.00002086,  -0.00002163,   0.00005736,  -0.00000009,  -0.00000616,   0.00000050
  4.40450000,  -0.00000253,  -0.00000154,   1.00007530,  -0.00000001,   0.00000117,   0.00000000,  -0.00002087,  -0.00002164,   0.00005737,  -0.00000009,  -0.00000616,   0.00000050
  4.47108330,  -0.00000051,  -0.00000033,   1.00001540,   0.00000000,   0.00000023,   0.00000000,  -0.00002087,  -0.00002164,   0.00005737,  -0.00000009,  -0.00000616,   0.00000050
  4.53766670,   0.00000085,   0.00000052,   0.99997420,   0.00000000,  -0.00000043,   0.00000000,  -0.00002087,  -0.00002164,   0.00005737,  -0.00000009,  -0.00000617,   0.00000050
  4.60425000,   0.00000048,   0.00000028,   0.99998499,   0.00000001,  -0.00000028,   0.00000000,  -0.00002087,  -0.00002164,   0.00005738,  -0.00000009,  -0.00000617,   0.00000050
  4.67083330,  -0.00000012,  -0.00000008,   1.00000430,   0.00000000,   0.00000003,  -0.00000000,  -0.00002087,  -0.00002165,   0.00005738,  -0.00000009,  -0.00000617,   0.00000050
  4.73741670,  -0.00000002,  -0.00000002,   1.00000140,   0.00000000,  -0.00000001,  -0.00000000,  -0.00002088,  -0.00002165,   0.00005739,  -0.00000009,  -0.00000618,   0.00000050
  4.80400000,  -0.00000067,  -0.00000038,   1.00001960,  -0.00000000,   0.00000030,   0.00000000,  -0.00002088,  -0.00002165,   0.00005740,  -0.00000009,  -0.00000618,   0.00000050
  4.87058330,  -0.00000002,  -0.00000001,   1.00000130,   0.00000000,  -0.00000000,  -0.00000000,  -0.00002088,  -0.00002165,   0.00005740,  -0.00000009,  -0.00000618,   0.00000050
  4.93716670,  -0.00000311,  -0.00000192,   1.00009330,  -0.00000001,   0.00000142,   0.00000001,  -0.00002088,  -0.00002166,   0.00005741,  -0.00000009,  -0.00000618,   0.00000050
  5.00375000,  -0.00000045,  -0.00000029,   1.00001390,  -0.00000000,   0.00000020,   0.00000000,  -0.00002089,  -0.00002166,   0.00005741,  -0.00000009,  -0.00000619,   0.00000050
  5.07033330,   0.00000053,   0.00000032,   0.99998417,   0.00000000,  -0.00000028,  -0.00000000,  -0.00002089,  -0.00002166,   0.00005741,  -0.00000009,  -0.00000619,   0.00000050
  5.13691670,  -0.00000011,  -0.00000008,   1.00000400,   0.00000000,   0.00000002,  -0.00000000,  -0.00002089,  -0.00002166,   0.00005742,  -0.00000009,  -0.00000619,   0.00000050
  5.20350000,  -0.00000002,  -0.00000002,   1.00000160,   0.00000000,  -0.00000001,  -0.00000000,  -0.00002089,  -0.00002167,   0.00005742,  -0.00000009,  -0.00000619,   0.00000050
  5.27008330,  -0.00000054,  -0.00000031,   1.00001570,   0.00000000,   0.00000025,   0.00000000,  -0.00002089,  -0.00002167,   0.00005743,  -0.00000009,  -0.00000620,   0.00000050
  5.33666670,   0.00000001,   0.00000000,   1.00000050,   0.00000000,  -0.00000001,  -0.00000000,  -0.00002090,  -0.00002167,   0.00005743,  -0.00000009,  -0.00000620,   0.00000050
  5.40325000,  -0.00000277,  -0.00000173,   1.00008280,  -0.00000000,   0.00000126,   0.00000000,  -0.00002090,  -0.00002168,   0.00005744,  -0.00000009,  -0.00000620,   0.00000050
  5.46983330,  -0.00000145,  -0.00000093,   1.00004340,  -0.00000000,   0.00000065,  -0.00000000,  -0.00002090,  -0.00002168,   0.00005745,  -0.00000009,  -0.00000620,   0.00000050
  5.53641670,  -0.00000032,  -0.00000023,   1.00001010,   0.00000000,   0.00000011,  -0.00000000,  -0.00002090,  -0.00002168,   0.00005745,  -0.00000009,  -0.00000621,   0.00000050
  5.60300000,  -0.00000008,  -0.00000006,   1.00000310,   0.00000000,   0.00000001,  -0.00000000,  -0.00002091,  -0.00002168,   0.00005745,  -0.00000009,  -0.00000621,   0.00000050
  5.66958330,  -0.00000104,  -0.00000068,   1.00003130,   0.00000000,   0.00000048,  -0.00000000,  -0.00002091,  -0.00002169,   0.00005746,  -0.00000009,  -0.00000621,   0.00000050
  5.73616670,   0.00000007,   0.00000004,   0.99999833,   0.00000000,  -0.00000004,  -0.00000000,  -0.00002091,  -0.00002169,   0.00005746,  -0.00000009,  -0.00000621,   0.00000050
  5.80275000,  -0.00000008,  -0.00000005,   1.00000330,   0.00000000,   0.00000001,  -0.00000000,  -0.00002091,  -0.00002169,   0.00005747,  -0.00000009,  -0.00000621,   0.00000050
  5.86933330,   0.00000093,   0.00000059,   0.99997062,   0.00000000,  -0.00000040,  -0.00000000,  -0.00002091,  -0.00002169,   0.00005747,  -0.00000009,  -0.00000622,   0.00000050
  5.93591670,  -0.00000012,  -0.00000008,   1.00000430,   0.00000000,   0.00000005,  -0.00000000,  -0.00002092,  -0.00002169,   0.00005748,  -0.00000009,  -0.00000622,   0.00000050
  6.00250000,  -0.00000012,  -0.00000009,   1.00000530,   0.00000000,   0.00000003,  -0.00000000,  -0.00002092,  -0.00002170,   0.00005748,  -0.00000009,  -0.00000622,   0.00000050
  6.06908330,   0.00000053,   0.00000041,   0.99998007,  -0.00000000,  -0.00000024,  -0.00000000,  -0.00002092,  -0.00002170,   0.00005749,  -0.00000009,  -0.00000622,   0.00000050
  6.13566670,  -0.00000031,  -0.00000019,   1.00000970,   0.00000000,   0.00000013,   0.00000000,  -0.00002092,  -0.00002170,   0.00005749,  -0.00000009,  -0.00000622,   0.00000050
  6.20225000,   0.00000007,   0.00000004,   0.99999907,   0.00000000,  -0.00000005,  -0.00000000,  -0.00002093,  -0.00002170,   0.00005750,  -0.00000009,  -0.00000623,   0.00000050
  6.26883330,  -0.00000232,  -0.00000141,   1.00006830,   0.00000000,   0.00000104,   0.00000001,  -0.00002093,  -0.00002171,   0.00005751,  -0.00000009,  -0.00000623,   0.00000050
  6.33541670,  -0.00000108,  -0.00000074,   1.00003130,   0.00000000,   0.00000047,   0.00000001,  -0.00002093,  -0.00002171,   0.00005751,  -0.00000009,  -0.00000623,   0.00000050
  6.40200000,   0.00000109,   0.00000067,   0.99996630,   0.00000000,  -0.00000052,  -0.00000000,  -0.00002093,  -0.00002171,   0.00005751,  -0.00000009,  -0.00000623,   0.00000050
  6.46858330,   0.00000012,   0.00000006,   0.99999712,   0.00000000,  -0.00000008,  -0.00000001,  -0.00002094,  -0.00002171,   0.00005752,  -0.00000009,  -0.00000624,   0.00000050
  6.53516670,  -0.00000001,  -0.00000001,   1.00000140,   0.00000000,  -0.00000001,  -0.00000000,  -0.00002094,  -0.00002171,   0.00005752,  -0.00000009,  -0.00000624,   0.00000050
  6.60175000,   0.00000053,   0.00000033,   0.99998377,   0.00000000,  -0.00000023,  -0.00000001,  -0.00002094,  -0.00002172,   0.00005753,  -0.00000009,  -0.00000624,   0.00000050
  6.66833330,  -0.00000025,  -0.00000016,   1.00000820,   0.00000000,   0.00000010,  -0.00000000,  -0.00002094,  -0.00002172,   0.00005753,  -0.00000009,  -0.00000624,   0.00000050
  6.73491670,   0.00000001,   0.00000000,   1.00000070,   0.00000000,  -0.00000002,  -0.00000000,  -0.00002094,  -0.00002172,   0.00005754,  -0.00000009,  -0.00000624,   0.00000050
  6.80150000,  -0.00000150,  -0.00000093,   1.00004520,   0.00000000,   0.00000068,   0.00000000,  -0.00002095,  -0.00002172,   0.00005754,  -0.00000009,  -0.00000625,   0.00000050
  6.86808330,  -0.00000002,  -0.00000001,   1.00000120,   0.00000000,   0.00000000,  -0.00000000,  -0.00002095,  -0.00002172,   0.00005755,  -0.00000009,  -0.00000625,   0.00000050
  6.93466670,   0.00000026,   0.00000015,   0.99999344,   0.00000000,  -0.00000014,  -0.00000000,  -0.00002095,  -0.00002173,   0.00005755,  -0.00000009,  -0.00000625,   0.00000050
  7.00125000,  -0.00000006,  -0.00000004,   1.00000270,   0.00000000,   0.00000001,  -0.00000000,  -0.00002095,  -0.00002173,   0.00005756,  -0.00000009,  -0.00000625,   0.00000050
  7.06783330,   0.00000155,   0.00000096,   0.99995439,   0.00000001,  -0.00000068,  -0.00000000,  -0.00002096,  -0.00002173,   0.00005756,  -0.00000009,  -0.00000625,   0.00000050
  7.13441670,  -0.00000008,  -0.00000004,   1.00000330,   0.00000000,   0.00000003,  -0.00000000,  -0.00002096,  -0.00002173,   0.00005757,  -0.00000009,  -0.00000625,   0.00000050
  7.20100000,  -0.00000002,  -0.00000001,   1.00000140,   0.00000000,  -0.00000001,  -0.00000000,  -0.00002096,  -0.00002174,   0.00005757,  -0.00000009,  -0.00000626,   0.00000050
  7.26758330,  -0.00000046,  -0.00000026,   1.00001470,   0.00000000,   0.00000022,   0.00000001,  -0.00002096,  -0.00002174,   0.00005758,  -0.00000009,  -0.00000626,   0.00000050
  7.33416670,   0.00000003,   0.00000002,   1.00000010,   0.00000000,  -0.00000002,  -0.00000000,  -0.00002097,  -0.00002174,   0.00005758,  -0.00000009,  -0.00000626,   0.00000050
  7.40075000,  -0.00000006,  -0.00000004,   1.00000270,   0.00000000,   0.00000001,  -0.00000000,  -0.00002097,  -0.00002174,   0.00005758,  -0.00000009,  -0.00000626,   0.00000050
  7.46733330,   0.00000046,   0.00000030,   0.99998663,   0.00000000,  -0.00000019,  -0.00000000,  -0.00002097,  -0.00002174,   0.00005759,  -0.00000009,  -0.00000626,   0.00000050
  7.53391670,  -0.00000006,  -0.00000003,   1.00000270,   0.00000000,   0.00000002,  -0.00000000,  -0.00002097,  -0.00002174,   0.00005759,  -0.00000009,  -0.00000627,   0.00000050
  7.60050000,   0.00000265,   0.00000163,   0.99992068,   0.00000001,  -0.00000116,  -0.00000001,  -0.00002098,  -0.00002175,   0.00005759,  -0.00000009,  -0.00000627,   0.00000050
  7.66708330,   0.00000091,   0.00000061,   0.99997260,   0.00000000,  -0.00000042,  -0.00000000,  -0.00002098,  -0.00002175,   0.00005760,  -0.00000009,  -0.00000627,   0.00000050
  7.73366670,   0.00000004,   0.00000002,   0.99999981,   0.00000000,  -0.00000003,  -0.00000000,  -0.00002098,  -0.00002175,   0.00005761,  -0.00000009,  -0.00000627,   0.00000050
  7.80025000,   0.00000002,   0.00000001,   1.00000030,   0.00000000,  -0.00000002,  -0.00000000,  -0.00002098,  -0.00002175,   0.00005761,  -0.00000009,  -0.00000627,   0.00000050
  7.86683330,  -0.00000028,  -0.00000013,   1.00000900,   0.00000000,   0.00000012,   0.00000001,  -0.00002099,  -0.00002175,   0.00005762,  -0.00000009,  -0.00000627,   0.00000050
  7.93341670,   0.00000004,   0.00000003,   0.99999952,   0.00000000,  -0.00000003,  -0.00000000,  -0.00002099,  -0.00002176,   0.00005762,  -0.00000009,  -0.00000628,   0.00000050
  8.00000000,  -0.00000006,  -0.00000004,   1.00000280,   0.00000000,   0.00000001,  -0.00000000,  -0.00002099,  -0.00002176,   0.00005763,  -0.00000009,  -0.00000628,   0.00000050
  8.00025000,   0.00000092,   0.00000102,   0.97499779,  -0.00000000,  -0.00000010,   0.00000005,  -0.00002058,  -0.00002128,   0.00005633,  -0.00000009,  -0.00000616,   0.00000049
  8.00050000,  -0.00000210,  -0.00000186,   0.94999958,  -0.00000004,  -0.00000005,   0.00000002,  -0.00002013,  -0.00002078,   0.00005499,  -0.00000009,  -0.00000603,   0.00000048
  8.00075000,  -0.00000208,  -0.00000194,   0.92499902,  -0.00000005,  -0.00000004,   0.00000001,  -0.00001968,  -0.00002027,   0.00005365,  -0.00000008,  -0.00000591,   0.00000047
  8.00100000,  -0.00000028,  -0.00000498,   0.90001293,  -0.00000003,  -0.00000098,  -0.00000001,  -0.00001922,  -0.00001975,   0.00005230,  -0.00000008,  -0.00000578,   0.00000046
  8.00125000,  -0.00000020,  -0.00000208,   0.87499702,  -0.00000003,  -0.00000047,  -0.00000001,  -0.00001877,  -0.00001923,   0.00005095,  -0.00000008,  -0.00000565,   0.00000045
  8.00150000,  -0.00000015,  -0.00000053,   0.84999882,  -0.00000002,  -0.00000008,  -0.00000000,  -0.00001831,  -0.00001870,   0.00004960,  -0.00000008,  -0.00000552,   0.00000043
  8.00175000,   0.00000067,   0.00000027,   0.82499599,   0.00000000,  -0.00000011,  -0.00000001,  -0.00001786,  -0.00001818,   0.00004824,  -0.00000008,  -0.00000539,   0.00000042
  8.00200000,   0.00000026,   0.00000242,   0.79998714,   0.00000001,   0.00000015,   0.00000001,  -0.00001740,  -0.00001765,   0.00004688,  -0.00000007,  -0.00000526,   0.00000041
  8.00225000,   0.00000066,   0.00000099,   0.77500973,   0.00000003,   0.00000018,  -0.00000000,  -0.00001695,  -0.00001713,   0.00004553,  -0.00000007,  -0.00000513,   0.00000040
  8.00250000,   0.00000130,   0.00000087,   0.75000063,   0.00000004,  -0.00000006,  -0.00000001,  -0.00001650,  -0.00001660,   0.00004417,  -0.00000007,  -0.00000500,   0.00000039
  8.00275000,   0.00000040,   0.00000056,   0.72501008,   0.00000003,   0.00000015,  -0.00000000,  -0.00001604,  -0.00001607,   0.00004282,  -0.00000007,  -0.00000487,   0.00000038
  8.00300000,   0.00000050,   0.00000041,   0.70000079,   0.00000002,  -0.00000000,  -0.00000000,  -0.00001559,  -0.00001555,   0.00004146,  -0.00000006,  -0.00000474,   0.00000037
  8.00325000,  -0.00000216,  -0.00000105,   0.67504781,   0.00000001,   0.00000075,  -0.00000000,  -0.00001514,  -0.00001502,   0.00004011,  -0.00000006,  -0.00000460,   0.00000035
  8.00350000,  -0.00000011,  -0.00000007,   0.64999996,   0.00000001,   0.00000001,   0.00000000,  -0.00001468,  -0.00001449,   0.00003875,  -0.00000006,  -0.00000447,   0.00000034
  8.00375000,  -0.00000036,  -0.00000037,   0.62500286,  -0.00000000,   0.00000002,  -0.00000000,  -0.00001423,  -0.00001397,   0.00003739,  -0.00000006,  -0.00000434,   0.00000033
  8.00400000,   0.00000048,   0.00000060,   0.59997650,  -0.00000001,  -0.00000028,   0.00000000,  -0.00001377,  -0.00001344,   0.00003603,  -0.00000006,  -0.00000421,   0.00000032
  8.00425000,   0.00000059,   0.00000047,   0.57497546,  -0.00000001,  -0.00000032,   0.00000001,  -0.00001332,  -0.00001291,   0.00003468,  -0.00000005,  -0.00000408,   0.00000031
  8.00450000,  -0.00000053,  -0.00000046,   0.55000389,  -0.00000001,   0.00000005,  -0.00000000,  -0.00001286,  -0.00001239,   0.00003332,  -0.00000005,  -0.00000395,   0.00000030
  8.00475000,  -0.00000061,  -0.00000058,   0.52500810,  -0.00000001,   0.00000009,  -0.00000000,  -0.00001241,  -0.00001186,   0.00003196,  -0.00000005,  -0.00000382,   0.00000029
  8.00500000,  -0.00000010,  -0.00000012,   0.49999839,  -0.00000001,  -0.00000004,  -0.00000000,  -0.00001196,  -0.00001133,   0.00003061,  -0.00000005,  -0.00000369,   0.00000028
  8.00525000,  -0.00000024,  -0.00000017,   0.47500334,  -0.00000001,   0.00000004,  -0.00000000,  -0.00001150,  -0.00001080,   0.00002925,  -0.00000005,  -0.00000356,   0.00000026
  8.00550000,   0.00000171,   0.00000125,   0.44996051,  -0.00000000,  -0.00000055,  -0.00000000,  -0.00001105,  -0.00001027,   0.00002789,  -0.00000004,  -0.00000343,   0.00000025
  8.00575000,  -0.00000001,   0.00000001,   0.42500072,   0.00000000,   0.00000000,  -0.00000000,  -0.00001059,  -0.00000975,   0.00002654,  -0.00000004,  -0.00000330,   0.00000024
  8.00600000,  -0.00000037,  -0.00000033,   0.40000967,   0.00000000,   0.00000012,  -0.00000000,  -0.00001014,  -0.00000922,   0.00002518,  -0.00000004,  -0.00000317,   0.00000023
  8.00625000,   0.00000004,   0.00000002,   0.37499991,   0.00000000,  -0.00000001,  -0.00000000,  -0.00000968,  -0.00000869,   0.00002382,  -0.00000004,  -0.00000304,   0.00000022
  8.00650000,  -0.00000009,  -0.00000005,   0.35000241,   0.00000001,   0.00000003,  -0.00000000,  -0.00000923,  -0.00000816,   0.00002247,  -0.00000003,  -0.00000290,   0.00000021
  8.00675000,   0.00000009,   0.00000007,   0.32499825,   0.00000001,  -0.00000002,  -0.00000000,  -0.00000877,  -0.00000764,   0.00002111,  -0.00000003,  -0.00000277,   0.00000020
  8.00700000,  -0.00000002,  -0.00000002,   0.30000028,   0.00000001,   0.00000000,  -0.00000000,  -0.00000832,  -0.00000711,   0.00001975,  -0.00000003,  -0.00000264,   0.00000018
  8.00725000,  -0.00000005,  -0.00000003,   0.27500054,   0.00000000,   0.00000001,  -0.00000000,  -0.00000787,  -0.00000658,   0.00001839,  -0.00000003,  -0.00000251,   0.00000017
  8.00750000,  -0.00000046,  -0.00000028,   0.25000984,   0.00000000,   0.00000018,   0.00000000,  -0.00000741,  -0.00000605,   0.00001704,  -0.00000003,  -0.00000238,   0.00000016
  8.00775000,  -0.00000002,  -0.00000001,   0.22500001,   0.00000000,   0.00000001,  -0.00000000,  -0.00000696,  -0.00000553,   0.00001568,  -0.00000002,  -0.00000225,   0.00000015
  8.00800000,   0.00000008,   0.00000006,   0.19999757,   0.00000000,  -0.00000003,  -0.00000000,  -0.00000650,  -0.00000500,   0.00001432,  -0.00000002,  -0.00000212,   0.00000014
  8.00825000,  -0.00000012,  -0.00000008,   0.17500179,  -0.00000000,   0.00000003,  -0.00000000,  -0.00000605,  -0.00000447,   0.00001296,  -0.00000002,  -0.00000199,   0.00000013
  8.00850000,  -0.00000003,  -0.00000002,   0.15000000,   0.00000000,   0.00000001,  -0.00000000,  -0.00000559,  -0.00000394,   0.00001161,  -0.00000002,  -0.00000186,   0.00000012
  8.00875000,  -0.00000018,  -0.00000012,   0.12500281,   0.00000000,   0.00000005,  -0.00000000,  -0.00000514,  -0.00000341,   0.00001025,  -0.00000002,  -0.00000173,   0.00000011
  8.00900000,  -0.00000009,  -0.00000006,   0.10000053,   0.00000000,   0.00000002,  -0.00000000,  -0.00000468,  -0.00000289,   0.00000889,  -0.00000001,  -0.00000159,   0.00000009
  8.00925000,  -0.00000009,  -0.00000006,   0.07500093,   0.00000000,   0.00000002,  -0.00000000,  -0.00000423,  -0.00000236,   0.00000753,  -0.00000001,  -0.00000146,   0.00000008
  8.00950000,  -0.00000008,  -0.00000005,   0.05000042,   0.00000000,   0.00000002,  -0.00000000,  -0.00000377,  -0.00000183,   0.00000618,  -0.00000001,  -0.00000133,   0.00000007
  8.00975000,  -0.00000007,  -0.00000005,   0.02500023,   0.00000000,   0.00000001,  -0.00000000,  -0.00000332,  -0.00000130,   0.00000482,  -0.00000001,  -0.00000120,   0.00000006
  8.01000000,  -0.00000007,  -0.00000004,   0.00000006,   0.00000000,   0.00000001,  -0.00000000,  -0.00000286,  -0.00000077,   0.00000346,  -0.00000001,  -0.00000107,   0.00000005
  8.14316670,  -0.00000006,  -0.00000004,  -0.00000006,   0.00000000,   0.00000001,  -0.00000000,  -0.00000214,  -0.00000052,   0.00000258,  -0.00000000,  -0.00000086,   0.00000004
  8.27633330,  -0.00000006,  -0.00000004,   0.00000002,   0.00000000,   0.00000001,  -0.00000000,  -0.00000164,  -0.00000047,   0.00000207,  -0.00000000,  -0.00000073,   0.00000003
  8.40950000,  -0.00000007,  -0.00000004,   0.00000005,   0.00000000,   0.00000001,  -0.00000000,  -0.00000127,  -0.00000044,   0.00000169,  -0.00000000,  -0.00000063,   0.00000003
  8.54266670,  -0.00000007,  -0.00000004,   0.00000006,   0.00000000,   0.00000001,  -0.00000000,  -0.00000100,  -0.00000041,   0.00000140,  -0.00000000,  -0.00000055,   0.00000003
  8.67583330,  -0.00000007,  -0.00000004,   0.00000005,   0.00000000,   0.00000001,  -0.00000000,  -0.00000080,  -0.00000039,   0.00000120,  -0.00000000,  -0.00000050,   0.00000002
  8.80900000,  -0.00000007,  -0.00000004,   0.00000004,   0.00000000,   0.00000001,  -0.00000000,  -0.00000066,  -0.00000038,   0.00000104,  -0.00000000,  -0.00000045,   0.00000002
  8.94216670,  -0.00000007,  -0.00000004,   0.00000007,   0.00000000,   0.00000001,  -0.00000000,  -0.00000055,  -0.00000036,   0.00000093,  -0.00000000,  -0.00000042,   0.00000002
  9.07533330,  -0.00000007,  -0.00000004,   0.00000006,   0.00000000,   0.00000001,  -0.00000000,  -0.00000047,  -0.00000035,   0.00000084,  -0.00000000,  -0.00000039,   0.00000002
  9.20850000,  -0.00000007,  -0.00000004,   0.00000008,   0.00000000,   0.00000001,  -0.00000000,  -0.00000041,  -0.00000034,   0.00000078,  -0.00000000,  -0.00000037,   0.00000002
  9.34166670,  -0.00000006,  -0.00000004,   0.00000000,   0.00000000,   0.00000001,  -0.00000000,  -0.00000037,  -0.00000034,   0.00000073,  -0.00000000,  -0.00000035,   0.00000002
  9.47483330,  -0.00000006,  -0.00000004,   0.00000007,   0.00000000,   0.00000001,  -0.00000000,  -0.00000034,  -0.00000033,   0.00000070,  -0.00000000,  -0.00000033,   0.00000002
  9.60800000,  -0.00000006,  -0.00000004,   0.00000007,   0.00000000,   0.00000001,  -0.00000000,  -0.00000032,  -0.00000032,   0.00000067,  -0.00000000,  -0.00000032,   0.00000002
  9.74116670,  -0.00000006,  -0.00000004,   0.00000003,   0.00000000,   0.00000001,  -0.00000000,  -0.00000031,  -0.00000031,   0.00000065,  -0.00000000,  -0.00000031,   0.00000001
  9.87433330,  -0.00000006,  -0.00000004,   0.00000004,   0.00000000,   0.00000001,  -0.00000000,  -0.00000030,  -0.00000031,   0.00000063,  -0.00000000,  -0.00000030,   0.00000001
 10.00750000,  -0.00000006,  -0.00000004,   0.00000004,   0.00000000,   0.00000001,  -0.00000000,  -0.00000029,  -0.00000030,   0.00000062,  -0.00000000,  -0.00000029,   0.00000001
 10.14066700,  -0.00000007,  -0.00000004,   0.00000006,   0.00000000,   0.00000001,  -0.00000000,  -0.00000029,  -0.00000030,   0.00000061,  -0.00000000,  -0.00000028,   0.00000001
 10.27383300,  -0.00000007,  -0.00000004,   0.00000005,   0.00000000,   0.00000001,  -0.00000000,  -0.00000028,  -0.00000029,   0.00000060,  -0.00000000,  -0.00000028,   0.00000001
 10.40700000,  -0.00000007,  -0.00000004,   0.00000006,   0.00000000,   0.00000001,  -0.00000000,  -0.00000028,  -0.00000028,   0.00000060,  -0.00000000,  -0.00000027,   0.00000001
 10.54016700,  -0.00000007,  -0.00000004,   0.00000005,   0.00000000,   0.00000001,  -0.00000000,  -0.00000028,  -0.00000028,   0.00000059,  -0.00000000,  -0.00000026,   0.00000001
 10.67333300,  -0.00000006,  -0.00000004,   0.00000006,   0.00000000,   0.00000001,  -0.00000000,  -0.00000028,  -0.00000027,   0.00000059,  -0.00000000,  -0.00000026,   0.00000001
 10.80650000,  -0.00000007,  -0.00000004,   0.00000007,   0.00000000,   0.00000001,  -0.00000000,  -0.00000028,  -0.00000027,   0.00000058,  -0.00000000,  -0.00000025,   0.00000001
 10.93966700,  -0.00000006,  -0.00000004,   0.00000005,   0.00000000,   0.00000001,  -0.00000000,  -0.00000028,  -0.00000027,   0.00000058,  -0.00000000,  -0.00000025,   0.00000001
 11.07283300,  -0.00000006,  -0.00000004,   0.00000003,   0.00000000,   0.00000001,  -0.00000000,  -0.00000028,  -0.00000026,   0.00000057,  -0.00000000,  -0.00000024,   0.00000001
 11.20600000,  -0.00000006,  -0.00000004,   0.00000005,   0.00000000,   0.00000001,  -0.00000000,  -0.00000029,  -0.00000026,   0.00000057,  -0.00000000,  -0.00000024,   0.00000001
 11.33916700,  -0.00000006,  -0.00000004,   0.00000006,   0.00000000,   0.00000001,  -0.00000000,  -0.00000029,  -0.00000025,   0.00000057,  -0.00000000,  -0.00000023,   0.00000001
 11.47233300,  -0.00000007,  -0.00000004,   0.00000007,   0.00000000,   0.00000001,  -0.00000000,  -0.00000029,  -0.00000025,   0.00000056,  -0.00000000,  -0.00000023,   0.00000001
 11.60550000,  -0.00000007,  -0.00000004,   0.00000006,   0.00000000,   0.00000001,  -0.00000000,  -0.00000029,  -0.00000025,   0.00000056,  -0.00000000,  -0.00000023,   0.00000001
 11.73866700,  -0.00000007,  -0.00000004,   0.00000007,   0.00000000,   0.00000001,  -0.00000000,  -0.00000029,  -0.00000024,   0.00000056,  -0.00000000,  -0.00000022,   0.00000001
 11.87183300,  -0.00000006,  -0.00000004,   0.00000004,   0.00000000,   0.00000001,  -0.00000000,  -0.00000029,  -0.00000024,   0.00000056,  -0.00000000,  -0.00000022,   0.00000001
 12.00500000,  -0.00000007,  -0.00000004,   0.00000006,   0.00000000,   0.00000001,  -0.00000000,  -0.00000029,  -0.00000023,   0.00000055,  -0.00000000,  -0.00000022,   0.00000001
 12.13816700,  -0.00000007,  -0.00000004,   0.00000006,   0.00000000,   0.00000001,  -0.00000000,  -0.00000030,  -0.00000023,   0.00000055,  -0.00000000,  -0.00000021,   0.00000001
 12.27133300,  -0.00000007,  -0.00000004,   0.00000004,   0.00000000,   0.00000001,  -0.00000000,  -0.00000030,  -0.00000023,   0.00000055,  -0.00000000,  -0.00000021,   0.00000001
 12.40450000,  -0.00000007,  -0.00000004,   0.00000006,   0.00000000,   0.00000001,  -0.00000000,  -0.00000030,  -0.00000022,   0.00000055,  -0.00000000,  -0.00000021,   0.00000001
 12.53766700,  -0.00000007,  -0.00000004,   0.00000006,   0.00000000,   0.00000001,  -0.00000000,  -0.00000030,  -0.00000022,   0.00000055,  -0.00000000,  -0.00000020,   0.00000001
 12.67083300,  -0.00000007,  -0.00000004,   0.00000005,   0.00000000,   0.00000001,  -0.00000000,  -0.00000030,  -0.00000022,   0.00000054,  -0.00000000,  -0.00000020,   0.00000001
 12.80400000,  -0.00000007,  -0.00000004,   0.00000006,   0.00000000,   0.00000001,  -0.00000000,  -0.00000030,  -0.00000022,   0.00000054,  -0.00000000,  -0.00000020,   0.00000001
 12.93716700,  -0.00000007,  -0.00000004,   0.00000006,   0.00000000,   0.00000001,  -0.00000000,  -0.00000030,  -0.00000021,   0.00000054,  -0.00000000,  -0.00000019,   0.00000001
 13.07033300,  -0.00000007,  -0.00000004,   0.00000006,   0.00000000,   0.00000001,  -0.00000000,  -0.00000030,  -0.00000021,   0.00000054,  -0.00000000,  -0.00000019,   0.00000001
 13.20350000,  -0.00000007,  -0.00000004,   0.00000006,   0.00000000,   0.00000001,  -0.00000000,  -0.00000030,  -0.00000021,   0.00000053,  -0.00000000,  -0.00000019,   0.00000001
 13.33666700,  -0.00000007,  -0.00000004,   0.00000006,   0.00000000,   0.00000001,  -0.00000000,  -0.00000030,  -0.00000020,   0.00000053,  -0.00000000,  -0.00000018,   0.00000001
 13.46983300,  -0.00000007,  -0.00000004,   0.00000006,   0.00000000,   0.00000001,  -0.00000000,  -0.00000030,  -0.00000020,   0.00000053,  -0.00000000,  -0.00000018,   0.00000001
 13.60300000,  -0.00000007,  -0.00000004,   0.00000006,   0.00000000,   0.00000001,  -0.00000000,  -0.00000031,  -0.00000020,   0.00000053,  -0.00000000,  -0.00000018,   0.00000001
 13.73616700,  -0.00000007,  -0.00000004,   0.00000006,   0.00000000,   0.00000001,  -0.00000000,  -0.00000031,  -0.00000020,   0.00000053,  -0.00000000,  -0.00000018,   0.00000001
 13.86933300,  -0.00000007,  -0.00000004,   0.00000006,   0.00000000,   0.00000001,  -0.00000000,  -0.00000031,  -0.00000019,   0.00000052,  -0.00000000,  -0.00000018,   0.00000001
 14.00250000,  -0.00000007,  -0.00000004,   0.00000006,   0.00000000,   0.00000001,  -0.00000000,  -0.00000031,  -0.00000019,   0.00000052,  -0.00000000,  -0.00000017,   0.00000001
 14.13566700,  -0.00000007,  -0.00000004,   0.00000006,   0.00000000,   0.00000001,  -0.00000000,  -0.00000031,  -0.00000019,   0.00000052,  -0.00000000,  -0.00000017,   0.00000001
 14.26883300,  -0.00000007,  -0.00000004,   0.00000006,   0.00000000,   0.00000001,  -0.00000000,  -0.00000031,  -0.00000019,   0.00000052,  -0.00000000,  -0.00000017,   0.00000001
 14.40200000,  -0.00000007,  -0.00000004,   0.00000005,   0.00000000,   0.00000001,  -0.00000000,  -0.00000031,  -0.00000019,   0.00000052,  -0.00000000,  -0.00000017,   0.00000001
 14.53516700,  -0.00000007,  -0.00000004,   0.00000005,   0.00000000,   0.00000001,  -0.00000000,  -0.00000031,  -0.00000018,   0.00000052,  -0.00000000,  -0.00000016,   0.00000001
 14.66833300,  -0.00000007,  -0.00000004,   0.00000006,   0.00000000,   0.00000001,  -0.00000000,  -0.00000031,  -0.00000018,   0.00000051,  -0.00000000,  -0.00000016,   0.00000001
 14.80150000,  -0.00000007,  -0.00000004,   0.00000006,   0.00000000,   0.00000001,  -0.00000000,  -0.00000031,  -0.00000018,   0.00000051,  -0.00000000,  -0.00000016,   0.00000001
 14.93466700,  -0.00000007,  -0.00000004,   0.00000005,   0.00000000,   0.00000001,  -0.00000000,  -0.00000031,  -0.00000018,   0.00000051,  -0.00000000,  -0.00000016,   0.00000001
 15.06783300,  -0.00000007,  -0.00000004,   0.00000006,   0.00000000,   0.00000001,  -0.00000000,  -0.00000031,  -0.00000018,   0.00000051,  -0.00000000,  -0.00000016,   0.00000001
 15.20100000,  -0.00000007,  -0.00000004,   0.00000006,   0.00000000,   0.00000001,  -0.00000000,  -0.00000031,  -0.00000017,   0.00000051,  -0.00000000,  -0.00000016,   0.00000001
 15.33416700,  -0.00000007,  -0.00000004,   0.00000005,   0.00000000,   0.00000001,  -0.00000000,  -0.00000031,  -0.00000017,   0.00000050,  -0.00000000,  -0.00000015,   0.00000001
 15.46733300,  -0.00000007,  -0.00000004,   0.00000006,   0.00000000,   0.00000001,  -0.00000000,  -0.00000031,  -0.00000017,   0.00000050,  -0.00000000,  -0.00000015,   0.00000001
 15.60050000,  -0.00000007,  -0.00000004,   0.00000006,   0.00000000,   0.00000001,  -0.00000000,  -0.00000031,  -0.00000017,   0.00000050,  -0.00000000,  -0.00000015,   0.00000001
 15.73366700,  -0.00000007,  -0.00000004,   0.00000006,   0.00000000,   0.00000001,  -0.00000000,  -0.00000031,  -0.00000017,   0.00000050,  -0.00000000,  -0.00000015,   0.00000001
 15.86683300,  -0.00000007,  -0.00000004,   0.00000006,   0.00000000,   0.00000001,  -0.00000000,  -0.00000031,  -0.00000017,   0.00000050,  -0.00000000,  -0.00000015,   0.00000001
 16.00000000,  -0.00000007,  -0.00000004,   0.00000006,   0.00000000,   0.00000001,  -0.00000000,  -0.00000031,  -0.00000016,   0.00000050,  -0.00000000,  -0.00000015,   0.00000001
