Time (m)    , Stress_xx (MPa), Stress_yy (MPa), Stress_zz (MPa), Stress_xy (MPa), Stress_xz (MPa), Stress_yz (MPa), Strain_xx   , Strain_yy   , Strain_zz   , Strain_xy   , Strain_xz   , Strain_yz   
  0.00000000,   0.00000000,   0.00000000,   0.00000000,   0.00000000,   0.00000000,   0.00000000,   0.00000000,   0.00000000,   0.00000000,   0.00000000,   0.00000000,   0.00000000
  0.00050000,  -0.00000012,  -0.00000002,   0.05000121,   0.00000001,   0.00000002,  -0.00000000,  -0.00000052,  -0.00000073,   0.00000219,  -0.00000000,  -0.00000017,   0.00000002
  0.00100000,  -0.00000029,   0.00000017,   0.10000238,   0.00000001,   0.00000003,  -0.00000000,  -0.00000113,  -0.00000157,   0.00000455,  -0.00000001,  -0.00000037,   0.00000004
  0.00150000,   0.00000003,   0.00000006,   0.15000396,   0.00000000,  -0.00000004,  -0.00000001,  -0.00000177,  -0.00000245,   0.00000695,  -0.00000001,  -0.00000057,   0.00000006
  0.00200000,   0.00000055,   0.00000019,   0.20000181,  -0.00000000,   0.00000009,  -0.00000000,  -0.00000244,  -0.00000334,   0.00000938,  -0.00000001,  -0.00000079,   0.00000008
  0.00250000,  -0.00000070,   0.00000189,   0.25000103,   0.00000009,   0.00000121,   0.00000003,  -0.00000312,  -0.00000424,   0.00001184,  -0.00000002,  -0.00000100,   0.00000010
  0.00300000,  -0.00000196,   0.00000273,   0.30000127,   0.00000006,   0.00000108,   0.00000003,  -0.00000382,  -0.00000514,   0.00001430,  -0.00000002,  -0.00000121,   0.00000012
  0.00350000,  -0.00000051,   0.00000142,   0.34999943,   0.00000006,   0.00000085,   0.00000002,  -0.00000453,  -0.00000605,   0.00001678,  -0.00000002,  -0.00000143,   0.00000014
  0.00400000,  -0.00000058,   0.00000139,   0.39999933,   0.00000006,   0.00000073,   0.00000002,  -0.00000525,  -0.00000697,   0.00001927,  -0.00000003,  -0.00000165,   0.00000016
  0.00450000,  -0.00000025,   0.00000118,   0.44999809,   0.00000006,   0.00000065,   0.00000002,  -0.00000598,  -0.00000789,   0.00002178,  -0.00000003,  -0.00000187,   0.00000018
  0.00500000,  -0.00000038,   0.00000118,   0.49999860,   0.00000006,   0.00000059,   0.00000002,  -0.00000672,  -0.00000881,   0.00002429,  -0.00000003,  -0.00000209,   0.00000020
  0.00550000,  -0.00000010,   0.00000094,   0.54999805,   0.00000005,   0.00000055,   0.00000002,  -0.00000748,  -0.00000974,   0.00002680,  -0.00000004,  -0.00000231,   0.00000022
  0.00600000,  -0.00000023,   0.00000098,   0.59999838,   0.00000005,   0.00000050,   0.00000002,  -0.00000824,  -0.00001067,   0.00002933,  -0.00000004,  -0.00000254,   0.00000024
  0.00650000,  -0.00000003,   0.00000079,   0.64999816,   0.00000005,   0.00000047,   0.00000002,  -0.00000900,  -0.00001160,   0.00003186,  -0.00000005,  -0.00000276,   0.00000026
  0.00700000,  -0.00000016,   0.00000085,   0.69999831,   0.00000005,   0.00000044,   0.00000001,  -0.00000978,  -0.00001253,   0.00003440,  -0.00000005,  -0.00000299,   0.00000028
  0.00750000,  -0.00000000,   0.00000069,   0.74999826,   0.00000004,   0.00000041,   0.00000001,  -0.00001056,  -0.00001346,   0.00003695,  -0.00000005,  -0.00000321,   0.00000030
  0.00800000,  -0.00000012,   0.00000075,   0.79999834,   0.00000004,   0.00000038,   0.00000001,  -0.00001135,  -0.00001440,   0.00003950,  -0.00000006,  -0.00000344,   0.00000032
  0.00850000,   0.00000001,   0.00000060,   0.84999840,   0.00000004,   0.00000036,   0.00000001,  -0.00001214,  -0.00001534,   0.00004206,  -0.00000006,  -0.00000367,   0.00000034
  0.00900000,   0.00003073,  -0.00002013,   0.90000663,   0.00000006,   0.00000344,   0.00000011,  -0.00001294,  -0.00001628,   0.00004462,  -0.00000006,  -0.00000390,   0.00000036
  0.00950000,   0.00000372,   0.00000114,   0.94996980,   0.00000012,   0.00000098,   0.00000004,  -0.00001375,  -0.00001722,   0.00004718,  -0.00000007,  -0.00000413,   0.00000039
  0.01000000,  -0.00001997,   0.00002830,   0.99997845,   0.00000059,   0.00000197,   0.00000008,  -0.00001456,  -0.00001816,   0.00004975,  -0.00000007,  -0.00000436,   0.00000041
  0.07658333,  -0.00002357,   0.00002522,   0.99995679,   0.00000043,   0.00000171,   0.00000008,  -0.00001787,  -0.00002004,   0.00005331,  -0.00000008,  -0.00000498,   0.00000044
  0.14316667,  -0.00002229,   0.00002661,   0.99999180,   0.00000053,   0.00000216,   0.00000009,  -0.00001809,  -0.00002056,   0.00005384,  -0.00000008,  -0.00000511,   0.00000045
  0.20975000,  -0.00002185,   0.00002551,   0.99999924,   0.00000054,   0.00000143,   0.00000007,  -0.00001815,  -0.00002082,   0.00005406,  -0.00000008,  -0.00000517,   0.00000045
  0.27633333,  -0.00002007,   0.00002550,   0.99996631,   0.00000054,   0.00000144,   0.00000009,  -0.00001817,  -0.00002095,   0.00005417,  -0.00000008,  -0.00000520,   0.00000045
  0.34291667,  -0.00002042,   0.00002749,   0.99996689,   0.00000056,   0.00000204,   0.00000009,  -0.00001817,  -0.00002101,   0.00005421,  -0.00000008,  -0.00000522,   0.00000045
  0.40950000,  -0.00001636,   0.00002385,   0.99996778,   0.00000062,  -0.00000031,   0.00000003,  -0.00001818,  -0.00002104,   0.00005424,  -0.00000008,  -0.00000522,   0.00000045
  0.47608333,  -0.00001785,   0.00002523,   0.99998622,   0.00000062,   0.00000047,   0.00000004,  -0.00001818,  -0.00002106,   0.00005425,  -0.00000008,  -0.00000523,   0.00000045
  0.54266667,  -0.00001872,   0.00002634,   0.99999392,   0.00000062,   0.00000120,   0.00000005,  -0.00001818,  -0.00002107,   0.00005426,  -0.00000008,  -0.00000523,   0.00000045
  0.60925000,  -0.00001706,   0.00002133,   1.00001610,   0.00000064,   0.00000087,   0.00000006,  -0.00001818,  -0.00002108,   0.00005427,  -0.00000008,  -0.00000523,   0.00000045
  0.67583333,  -0.00001666,   0.00002475,   0.99996222,   0.00000062,   0.00000080,   0.00000005,  -0.00001818,  -0.00002108,   0.00005427,  -0.00000008,  -0.00000523,   0.00000045
  0.74241667,  -0.00001770,   0.00002584,   0.99996763,   0.00000061,   0.00000140,   0.00000006,  -0.00001818,  -0.00002109,   0.00005427,  -0.00000008,  -0.00000523,   0.00000045
  0.80900000,  -0.00001994,   0.00002658,   1.00001070,   0.00000059,   0.00000240,   0.00000007,  -0.00001818,  -0.00002109,   0.00005428,  -0.00000008,  -0.00000523,   0.00000045
  0.87558333,  -0.00001950,   0.00002769,   0.99998327,   0.00000058,   0.00000231,   0.00000007,  -0.00001818,  -0.00002109,   0.00005428,  -0.00000008,  -0.00000523,   0.00000045
  0.94216667,  -0.00002028,   0.00002785,   0.99999248,   0.00000058,   0.00000231,   0.00000007,  -0.00001819,  -0.00002110,   0.00005429,  -0.00000008,  -0.00000523,   0.00000045
  1.00875000,  -0.00001991,   0.00002822,   0.99997622,   0.00000058,   0.00000194,   0.00000007,  -0.00001819,  -0.00002110,   0.00005429,  -0.00000008,  -0.00000524,   0.00000045
  1.07533330,  -0.00001970,   0.00002803,   0.99997225,   0.00000059,   0.00000176,   0.00000008,  -0.00001819,  -0.00002110,   0.00005429,  -0.00000008,  -0.00000524,   0.00000045
  1.14191670,  -0.00002021,   0.00002783,   0.99998775,   0.00000059,   0.00000203,   0.00000008,  -0.00001819,  -0.00002110,   0.00005430,  -0.00000008,  -0.00000524,   0.00000045
  1.20850000,  -0.00002018,   0.00002766,   0.99999029,   0.00000059,   0.00000212,   0.00000008,  -0.00001819,  -0.00002111,   0.00005430,  -0.00000008,  -0.00000524,   0.00000045
  1.27508330,  -0.00001969,   0.00002812,   0.99997218,   0.00000059,   0.00000189,   0.00000008,  -0.00001820,  -0.00002111,   0.00005430,  -0.00000008,  -0.00000524,   0.00000045
  1.34166670,  -0.00001998,   0.00002809,   0.99997926,   0.00000059,   0.00000198,   0.00000008,  -0.00001820,  -0.00002111,   0.00005431,  -0.00000008,  -0.00000524,   0.00000045
  1.40825000,  -0.00001863,   0.00002956,   0.99992383,   0.00000060,   0.00000119,   0.00000009,  -0.00001820,  -0.00002111,   0.00005431,  -0.00000008,  -0.00000524,   0.00000045
  1.47483330,  -0.00001989,   0.00002840,   0.99997258,   0.00000060,   0.00000187,   0.00000008,  -0.00001820,  -0.00002111,   0.00005431,  -0.00000008,  -0.00000524,   0.00000045
  1.54141670,  -0.00002116,   0.00002715,   1.00002020,   0.00000060,   0.00000255,   0.00000009,  -0.00001821,  -0.00002112,   0.00005432,  -0.00000008,  -0.00000524,   0.00000045
  1.60800000,  -0.00001969,   0.00002812,   0.99997467,   0.00000060,   0.00000192,   0.00000008,  -0.00001821,  -0.00002112,   0.00005432,  -0.00000008,  -0.00000524,   0.00000045
  1.67458330,  -0.00001992,   0.00002817,   0.99997891,   0.00000060,   0.00000197,   0.00000008,  -0.00001821,  -0.00002112,   0.00005432,  -0.00000008,  -0.00000524,   0.00000045
  1.74116670,  -0.00001925,   0.00002905,   0.99994706,   0.00000060,   0.00000155,   0.00000008,  -0.00001821,  -0.00002112,   0.00005432,  -0.00000008,  -0.00000524,   0.00000045
  1.80775000,  -0.00002131,   0.00002775,   1.00001760,   0.00000060,   0.00000254,   0.00000008,  -0.00001821,  -0.00002112,   0.00005433,  -0.00000008,  -0.00000524,   0.00000045
  1.87433330,  -0.00002017,   0.00002813,   0.99998565,   0.00000060,   0.00000209,   0.00000009,  -0.00001822,  -0.00002112,   0.00005433,  -0.00000008,  -0.00000525,   0.00000045
  1.94091670,  -0.00002005,   0.00002817,   0.99998406,   0.00000060,   0.00000206,   0.00000008,  -0.00001822,  -0.00002112,   0.00005434,  -0.00000008,  -0.00000525,   0.00000045
  2.00750000,  -0.00001958,   0.00002846,   0.99996853,   0.00000060,   0.00000182,   0.00000008,  -0.00001822,  -0.00002112,   0.00005434,  -0.00000008,  -0.00000525,   0.00000045
  2.07408330,  -0.00001978,   0.00002829,   0.99997546,   0.00000060,   0.00000191,   0.00000008,  -0.00001822,  -0.00002113,   0.00005434,  -0.00000008,  -0.00000525,   0.00000045
  2.14066670,  -0.00001995,   0.00002826,   0.99998053,   0.00000060,   0.00000199,   0.00000008,  -0.00001823,  -0.00002113,   0.00005435,  -0.00000008,  -0.00000525,   0.00000045
  2.20725000,  -0.00001979,   0.00002839,   0.99997433,   0.00000059,   0.00000191,   0.00000008,  -0.00001823,  -0.00002113,   0.00005435,  -0.00000008,  -0.00000525,   0.00000045
  2.27383330,  -0.00002202,   0.00002725,   1.00004640,   0.00000059,   0.00000294,   0.00000008,  -0.00001823,  -0.00002113,   0.00005436,  -0.00000008,  -0.00000525,   0.00000045
  2.34041670,  -0.00002013,   0.00002823,   0.99998435,   0.00000059,   0.00000204,   0.00000007,  -0.00001823,  -0.00002113,   0.00005436,  -0.00000008,  -0.00000525,   0.00000045
  2.40700000,  -0.00002049,   0.00002796,   0.99999538,   0.00000059,   0.00000219,   0.00000007,  -0.00001824,  -0.00002113,   0.00005436,  -0.00000008,  -0.00000525,   0.00000045
  2.47358330,  -0.00002035,   0.00002793,   0.99999307,   0.00000059,   0.00000215,   0.00000007,  -0.00001824,  -0.00002113,   0.00005436,  -0.00000009,  -0.00000525,   0.00000045
  2.54016670,  -0.00002037,   0.00002787,   0.99999442,   0.00000059,   0.00000215,   0.00000006,  -0.00001824,  -0.00002113,   0.00005437,  -0.00000009,  -0.00000525,   0.00000045
  2.60675000,  -0.00001964,   0.00002841,   0.99996861,   0.00000059,   0.00000182,   0.00000007,  -0.00001824,  -0.00002113,   0.00005437,  -0.00000009,  -0.00000525,   0.00000045
  2.67333330,  -0.00002004,   0.00002825,   0.99998016,   0.00000059,   0.00000199,   0.00000008,  -0.00001825,  -0.00002114,   0.00005437,  -0.00000009,  -0.00000526,   0.00000045
  2.73991670,  -0.00001985,   0.00002837,   0.99997434,   0.00000059,   0.00000191,   0.00000008,  -0.00001825,  -0.00002114,   0.00005437,  -0.00000009,  -0.00000526,   0.00000045
  2.80650000,  -0.00002201,   0.00002717,   1.00004370,   0.00000059,   0.00000290,   0.00000007,  -0.00001825,  -0.00002114,   0.00005438,  -0.00000009,  -0.00000526,   0.00000046
  2.87308330,  -0.00002019,   0.00002816,   0.99998495,   0.00000059,   0.00000205,   0.00000007,  -0.00001825,  -0.00002114,   0.00005438,  -0.00000009,  -0.00000526,   0.00000046
  2.93966670,  -0.00001798,   0.00002943,   0.99991272,   0.00000060,   0.00000100,   0.00000007,  -0.00001825,  -0.00002114,   0.00005438,  -0.00000009,  -0.00000526,   0.00000046
  3.00625000,  -0.00002124,   0.00002752,   1.00002070,   0.00000060,   0.00000254,   0.00000008,  -0.00001826,  -0.00002114,   0.00005439,  -0.00000009,  -0.00000526,   0.00000046
  3.07283330,  -0.00002021,   0.00002802,   0.99998833,   0.00000060,   0.00000209,   0.00000007,  -0.00001826,  -0.00002114,   0.00005439,  -0.00000009,  -0.00000526,   0.00000046
  3.13941670,  -0.00001819,   0.00002915,   0.99991551,   0.00000060,   0.00000104,   0.00000005,  -0.00001826,  -0.00002114,   0.00005439,  -0.00000009,  -0.00000526,   0.00000046
  3.20600000,  -0.00002097,   0.00002762,   1.00000890,   0.00000059,   0.00000237,   0.00000006,  -0.00001827,  -0.00002114,   0.00005440,  -0.00000009,  -0.00000526,   0.00000046
  3.27258330,  -0.00002062,   0.00002778,   1.00000030,   0.00000060,   0.00000224,   0.00000006,  -0.00001827,  -0.00002114,   0.00005440,  -0.00000008,  -0.00000526,   0.00000046
  3.33916670,  -0.00002073,   0.00002775,   0.99999952,   0.00000060,   0.00000221,   0.00000006,  -0.00001827,  -0.00002114,   0.00005440,  -0.00000008,  -0.00000526,   0.00000046
  3.40575000,  -0.00001935,   0.00002863,   0.99995756,   0.00000059,   0.00000165,   0.00000007,  -0.00001827,  -0.00002114,   0.00005441,  -0.00000008,  -0.00000526,   0.00000046
  3.47233330,  -0.00001971,   0.00002847,   0.99997079,   0.00000059,   0.00000186,   0.00000008,  -0.00001828,  -0.00002115,   0.00005441,  -0.00000008,  -0.00000526,   0.00000046
  3.53891670,  -0.00001959,   0.00002851,   0.99996686,   0.00000059,   0.00000180,   0.00000008,  -0.00001828,  -0.00002115,   0.00005441,  -0.00000008,  -0.00000527,   0.00000046
  3.60550000,  -0.00002004,   0.00002824,   0.99998065,   0.00000059,   0.00000199,   0.00000008,  -0.00001828,  -0.00002115,   0.00005442,  -0.00000008,  -0.00000527,   0.00000046
  3.67208330,  -0.00001678,   0.00003023,   0.99987369,   0.00000059,   0.00000049,   0.00000007,  -0.00001828,  -0.00002115,   0.00005441,  -0.00000008,  -0.00000527,   0.00000046
  3.73866670,  -0.00001970,   0.00002849,   0.99996964,   0.00000059,   0.00000186,   0.00000009,  -0.00001829,  -0.00002115,   0.00005442,  -0.00000008,  -0.00000527,   0.00000046
  3.80525000,  -0.00002097,   0.00002775,   1.00001430,   0.00000059,   0.00000251,   0.00000008,  -0.00001829,  -0.00002115,   0.00005443,  -0.00000008,  -0.00000527,   0.00000046
  3.87183330,  -0.00002081,   0.00002783,   1.00000600,   0.00000059,   0.00000238,   0.00000009,  -0.00001829,  -0.00002115,   0.00005443,  -0.00000008,  -0.00000527,   0.00000046
  3.93841670,  -0.00002107,   0.00002764,   1.00001200,   0.00000059,   0.00000243,   0.00000008,  -0.00001829,  -0.00002115,   0.00005443,  -0.00000008,  -0.00000527,   0.00000046
  4.00500000,  -0.00001984,   0.00002836,   0.99997365,   0.00000059,   0.00000189,   0.00000007,  -0.00001830,  -0.00002115,   0.00005443,  -0.00000008,  -0.00000527,   0.00000046
  4.07158330,  -0.00001954,   0.00002851,   0.99996394,   0.00000060,   0.00000173,   0.00000006,  -0.00001830,  -0.00002115,   0.00005444,  -0.00000008,  -0.00000527,   0.00000046
  4.13816670,  -0.00001894,   0.00002882,   0.99994460,   0.00000060,   0.00000143,   0.00000006,  -0.00001830,  -0.00002115,   0.00005444,  -0.00000008,  -0.00000527,   0.00000046
  4.20475000,  -0.00002017,   0.00002814,   0.99998440,   0.00000059,   0.00000204,   0.00000007,  -0.00001830,  -0.00002115,   0.00005444,  -0.00000008,  -0.00000527,   0.00000046
  4.27133330,  -0.00002024,   0.00002813,   0.99998833,   0.00000060,   0.00000212,   0.00000008,  -0.00001831,  -0.00002116,   0.00005445,  -0.00000008,  -0.00000527,   0.00000046
  4.33791670,  -0.00002153,   0.00002742,   1.00003160,   0.00000059,   0.00000279,   0.00000009,  -0.00001831,  -0.00002116,   0.00005445,  -0.00000008,  -0.00000527,   0.00000046
  4.40450000,  -0.00002049,   0.00002802,   0.99999617,   0.00000060,   0.00000222,   0.00000008,  -0.00001831,  -0.00002116,   0.00005445,  -0.00000008,  -0.00000527,   0.00000046
  4.47108330,  -0.00001823,   0.00002931,   0.99991868,   0.00000060,   0.00000103,   0.00000006,  -0.00001831,  -0.00002116,   0.00005445,  -0.00000008,  -0.00000528,   0.00000046
  4.53766670,  -0.00002022,   0.00002815,   0.99998535,   0.00000060,   0.00000205,   0.00000007,  -0.00001832,  -0.00002116,   0.00005446,  -0.00000008,  -0.00000528,   0.00000046
  4.60425000,  -0.00001965,   0.00002845,   0.99996927,   0.00000060,   0.00000185,   0.00000008,  -0.00001832,  -0.00002116,   0.00005446,  -0.00000008,  -0.00000528,   0.00000046
  4.67083330,  -0.00002006,   0.00002825,   0.99998174,   0.00000060,   0.00000202,   0.00000007,  -0.00001832,  -0.00002116,   0.00005447,  -0.00000008,  -0.00000528,   0.00000046
  4.73741670,  -0.00001989,   0.00002835,   0.99997593,   0.00000060,   0.00000193,   0.00000008,  -0.00001833,  -0.00002116,   0.00005447,  -0.00000008,  -0.00000528,   0.00000046
  4.80400000,  -0.00001999,   0.00002829,   0.99997931,   0.00000060,   0.00000198,   0.00000008,  -0.00001833,  -0.00002116,   0.00005447,  -0.00000008,  -0.00000528,   0.00000046
  4.87058330,  -0.00001911,   0.00002882,   0.99994943,   0.00000060,   0.00000155,   0.00000008,  -0.00001833,  -0.00002116,   0.00005447,  -0.00000008,  -0.00000528,   0.00000046
  4.93716670,  -0.00001941,   0.00002865,   0.99995889,   0.00000060,   0.00000170,   0.00000008,  -0.00001833,  -0.00002116,   0.00005448,  -0.00000008,  -0.00000528,   0.00000046
  5.00375000,  -0.00001819,   0.00002935,   0.99992110,   0.00000060,   0.00000118,   0.00000008,  -0.00001833,  -0.00002116,   0.00005448,  -0.00000008,  -0.00000528,   0.00000046
  5.07033330,  -0.00002150,   0.00002745,   1.00003090,   0.00000059,   0.00000275,   0.00000008,  -0.00001834,  -0.00002116,   0.00005449,  -0.00000008,  -0.00000528,   0.00000046
  5.13691670,  -0.00001998,   0.00002828,   0.99997924,   0.00000059,   0.00000198,   0.00000008,  -0.00001834,  -0.00002116,   0.00005449,  -0.00000008,  -0.00000528,   0.00000046
  5.20350000,  -0.00001938,   0.00002862,   0.99995331,   0.00000060,   0.00000154,   0.00000007,  -0.00001834,  -0.00002116,   0.00005449,  -0.00000008,  -0.00000528,   0.00000046
  5.27008330,  -0.00002025,   0.00002816,   0.99998754,   0.00000059,   0.00000209,   0.00000007,  -0.00001835,  -0.00002117,   0.00005449,  -0.00000008,  -0.00000528,   0.00000046
  5.33666670,  -0.00002029,   0.00002812,   0.99999312,   0.00000060,   0.00000221,   0.00000008,  -0.00001835,  -0.00002117,   0.00005450,  -0.00000008,  -0.00000528,   0.00000046
  5.40325000,  -0.00001922,   0.00002873,   0.99995449,   0.00000059,   0.00000164,   0.00000007,  -0.00001835,  -0.00002117,   0.00005450,  -0.00000008,  -0.00000529,   0.00000046
  5.46983330,  -0.00001943,   0.00002855,   0.99995835,   0.00000060,   0.00000165,   0.00000008,  -0.00001835,  -0.00002117,   0.00005450,  -0.00000008,  -0.00000529,   0.00000046
  5.53641670,  -0.00002044,   0.00002803,   0.99999439,   0.00000059,   0.00000219,   0.00000007,  -0.00001836,  -0.00002117,   0.00005451,  -0.00000008,  -0.00000529,   0.00000046
  5.60300000,  -0.00002128,   0.00002759,   1.00002520,   0.00000060,   0.00000266,   0.00000007,  -0.00001836,  -0.00002117,   0.00005451,  -0.00000008,  -0.00000529,   0.00000046
  5.66958330,  -0.00001961,   0.00002849,   0.99996643,   0.00000059,   0.00000180,   0.00000008,  -0.00001836,  -0.00002117,   0.00005451,  -0.00000009,  -0.00000529,   0.00000046
  5.73616670,  -0.00002004,   0.00002827,   0.99997990,   0.00000059,   0.00000198,   0.00000008,  -0.00001836,  -0.00002117,   0.00005451,  -0.00000009,  -0.00000529,   0.00000046
  5.80275000,  -0.00001976,   0.00002841,   0.99997166,   0.00000059,   0.00000187,   0.00000008,  -0.00001837,  -0.00002117,   0.00005452,  -0.00000009,  -0.00000529,   0.00000046
  5.86933330,  -0.00001952,   0.00002853,   0.99996350,   0.00000059,   0.00000175,   0.00000007,  -0.00001837,  -0.00002117,   0.00005452,  -0.00000009,  -0.00000529,   0.00000046
  5.93591670,  -0.00001919,   0.00002871,   0.99995143,   0.00000059,   0.00000157,   0.00000007,  -0.00001837,  -0.00002117,   0.00005452,  -0.00000009,  -0.00000529,   0.00000046
  6.00250000,  -0.00001792,   0.00002941,   0.99990970,   0.00000059,   0.00000097,   0.00000005,  -0.00001837,  -0.00002117,   0.00005452,  -0.00000009,  -0.00000529,   0.00000046
  6.06908330,  -0.00001904,   0.00002883,   0.99994723,   0.00000059,   0.00000151,   0.00000008,  -0.00001838,  -0.00002117,   0.00005453,  -0.00000009,  -0.00000529,   0.00000046
  6.13566670,  -0.00001974,   0.00002848,   0.99997489,   0.00000059,   0.00000190,   0.00000009,  -0.00001838,  -0.00002117,   0.00005453,  -0.00000009,  -0.00000529,   0.00000046
  6.20225000,  -0.00001951,   0.00002856,   0.99996263,   0.00000059,   0.00000174,   0.00000008,  -0.00001838,  -0.00002117,   0.00005453,  -0.00000009,  -0.00000529,   0.00000046
  6.26883330,  -0.00002010,   0.00002823,   0.99998272,   0.00000059,   0.00000203,   0.00000008,  -0.00001839,  -0.00002117,   0.00005454,  -0.00000009,  -0.00000530,   0.00000046
  6.33541670,  -0.00002085,   0.00002781,   1.00000840,   0.00000059,   0.00000240,   0.00000007,  -0.00001839,  -0.00002118,   0.00005454,  -0.00000009,  -0.00000530,   0.00000046
  6.40200000,  -0.00002191,   0.00002718,   1.00004480,   0.00000059,   0.00000293,   0.00000007,  -0.00001839,  -0.00002118,   0.00005455,  -0.00000009,  -0.00000530,   0.00000046
  6.46858330,  -0.00001839,   0.00002921,   0.99992763,   0.00000060,   0.00000125,   0.00000006,  -0.00001839,  -0.00002118,   0.00005454,  -0.00000009,  -0.00000530,   0.00000046
  6.53516670,  -0.00001938,   0.00002869,   0.99995779,   0.00000059,   0.00000167,   0.00000006,  -0.00001840,  -0.00002118,   0.00005455,  -0.00000008,  -0.00000530,   0.00000046
  6.60175000,  -0.00002100,   0.00002770,   1.00001500,   0.00000060,   0.00000250,   0.00000006,  -0.00001840,  -0.00002118,   0.00005456,  -0.00000008,  -0.00000530,   0.00000046
  6.66833330,  -0.00001771,   0.00002958,   0.99990552,   0.00000060,   0.00000094,   0.00000006,  -0.00001840,  -0.00002118,   0.00005455,  -0.00000008,  -0.00000530,   0.00000046
  6.73491670,  -0.00001978,   0.00002844,   0.99997079,   0.00000059,   0.00000187,   0.00000007,  -0.00001840,  -0.00002118,   0.00005456,  -0.00000008,  -0.00000530,   0.00000046
  6.80150000,  -0.00002191,   0.00002719,   1.00004480,   0.00000059,   0.00000295,   0.00000007,  -0.00001841,  -0.00002118,   0.00005457,  -0.00000008,  -0.00000530,   0.00000046
  6.86808330,  -0.00001823,   0.00002930,   0.99992238,   0.00000060,   0.00000121,   0.00000007,  -0.00001841,  -0.00002118,   0.00005456,  -0.00000008,  -0.00000530,   0.00000046
  6.93466670,  -0.00001983,   0.00002840,   0.99997421,   0.00000059,   0.00000191,   0.00000007,  -0.00001841,  -0.00002118,   0.00005457,  -0.00000008,  -0.00000530,   0.00000046
  7.00125000,  -0.00002274,   0.00002662,   1.00007140,   0.00000060,   0.00000326,   0.00000009,  -0.00001842,  -0.00002118,   0.00005458,  -0.00000008,  -0.00000530,   0.00000046
  7.06783330,  -0.00001990,   0.00002832,   0.99997707,   0.00000060,   0.00000193,   0.00000008,  -0.00001842,  -0.00002118,   0.00005457,  -0.00000008,  -0.00000530,   0.00000046
  7.13441670,  -0.00002003,   0.00002828,   0.99997877,   0.00000059,   0.00000197,   0.00000007,  -0.00001842,  -0.00002118,   0.00005458,  -0.00000008,  -0.00000530,   0.00000046
  7.20100000,  -0.00001978,   0.00002841,   0.99997235,   0.00000059,   0.00000188,   0.00000008,  -0.00001842,  -0.00002118,   0.00005458,  -0.00000008,  -0.00000531,   0.00000046
  7.26758330,  -0.00002257,   0.00002683,   1.00006320,   0.00000059,   0.00000319,   0.00000008,  -0.00001843,  -0.00002118,   0.00005459,  -0.00000008,  -0.00000531,   0.00000046
  7.33416670,  -0.00002010,   0.00002823,   0.99998271,   0.00000060,   0.00000202,   0.00000008,  -0.00001843,  -0.00002118,   0.00005459,  -0.00000009,  -0.00000531,   0.00000046
  7.40075000,  -0.00001968,   0.00002848,   0.99996821,   0.00000059,   0.00000181,   0.00000007,  -0.00001843,  -0.00002118,   0.00005459,  -0.00000009,  -0.00000531,   0.00000046
  7.46733330,  -0.00001861,   0.00002903,   0.99993322,   0.00000059,   0.00000131,   0.00000007,  -0.00001843,  -0.00002118,   0.00005459,  -0.00000009,  -0.00000531,   0.00000046
  7.53391670,  -0.00002080,   0.00002777,   1.00000540,   0.00000059,   0.00000233,   0.00000008,  -0.00001844,  -0.00002119,   0.00005460,  -0.00000009,  -0.00000531,   0.00000046
  7.60050000,  -0.00002015,   0.00002815,   0.99998586,   0.00000059,   0.00000205,   0.00000008,  -0.00001844,  -0.00002119,   0.00005460,  -0.00000009,  -0.00000531,   0.00000046
  7.66708330,  -0.00001900,   0.00002883,   0.99994433,   0.00000060,   0.00000143,   0.00000008,  -0.00001844,  -0.00002119,   0.00005460,  -0.00000009,  -0.00000531,   0.00000046
  7.73366670,  -0.00002036,   0.00002807,   0.99998985,   0.00000059,   0.00000212,   0.00000008,  -0.00001844,  -0.00002119,   0.00005460,  -0.00000009,  -0.00000531,   0.00000046
  7.80025000,  -0.00001990,   0.00002834,   0.99997706,   0.00000059,   0.00000195,   0.00000008,  -0.00001845,  -0.00002119,   0.00005461,  -0.00000009,  -0.00000531,   0.00000046
  7.86683330,  -0.00002020,   0.00002818,   0.99998595,   0.00000059,   0.00000208,   0.00000008,  -0.00001845,  -0.00002119,   0.00005461,  -0.00000009,  -0.00000531,   0.00000046
  7.93341670,  -0.00002020,   0.00002817,   0.99998625,   0.00000059,   0.00000208,   0.00000008,  -0.00001845,  -0.00002119,   0.00005461,  -0.00000009,  -0.00000531,   0.00000046
  8.00000000,  -0.00002074,   0.00002786,   1.00000470,   0.00000059,   0.00000235,   0.00000008,  -0.00001845,  -0.00002119,   0.00005462,  -0.00000009,  -0.00000531,   0.00000046
  8.00025000,  -0.00001668,   0.00002071,   0.97499986,   0.00000068,   0.00000255,   0.00000012,  -0.00001821,  -0.00002086,   0.00005357,  -0.00000008,  -0.00000524,   0.00000045
  8.00050000,  -0.00001836,   0.00002380,   0.95000184,   0.00000050,   0.00000222,   0.00000010,  -0.00001793,  -0.00002047,   0.00005243,  -0.00000008,  -0.00000515,   0.00000044
  8.00075000,  -0.00002192,   0.00002581,   0.92499955,   0.00000055,   0.00000213,   0.00000008,  -0.00001764,  -0.00002005,   0.00005126,  -0.00000008,  -0.00000505,   0.00000043
  8.00100000,  -0.00002220,   0.00002775,   0.90000456,   0.00000053,   0.00000059,   0.00000004,  -0.00001733,  -0.00001962,   0.00005008,  -0.00000008,  -0.00000495,   0.00000042
  8.00125000,  -0.00001916,   0.00002549,   0.87500372,   0.00000055,   0.00000132,   0.00000006,  -0.00001702,  -0.00001919,   0.00004888,  -0.00000008,  -0.00000485,   0.00000041
  8.00150000,  -0.00002164,   0.00002748,   0.85000754,   0.00000054,   0.00000133,   0.00000005,  -0.00001669,  -0.00001875,   0.00004768,  -0.00000008,  -0.00000474,   0.00000040
  8.00175000,  -0.00001944,   0.00002570,   0.82500528,   0.00000053,   0.00000156,   0.00000006,  -0.00001637,  -0.00001831,   0.00004647,  -0.00000007,  -0.00000464,   0.00000039
  8.00200000,  -0.00002089,   0.00002712,   0.80000577,   0.00000053,   0.00000163,   0.00000006,  -0.00001603,  -0.00001786,   0.00004525,  -0.00000007,  -0.00000453,   0.00000038
  8.00225000,  -0.00001970,   0.00002584,   0.77500655,   0.00000053,   0.00000178,   0.00000006,  -0.00001569,  -0.00001741,   0.00004402,  -0.00000007,  -0.00000442,   0.00000037
  8.00250000,  -0.00002063,   0.00002695,   0.75000571,   0.00000054,   0.00000185,   0.00000006,  -0.00001535,  -0.00001696,   0.00004280,  -0.00000007,  -0.00000432,   0.00000036
  8.00275000,  -0.00001993,   0.00002628,   0.72500569,   0.00000054,   0.00000192,   0.00000007,  -0.00001500,  -0.00001651,   0.00004157,  -0.00000007,  -0.00000421,   0.00000035
  8.00300000,  -0.00002045,   0.00002692,   0.70000511,   0.00000054,   0.00000194,   0.00000007,  -0.00001465,  -0.00001605,   0.00004033,  -0.00000006,  -0.00000410,   0.00000034
  8.00325000,  -0.00004128,   0.00004039,   0.67500243,   0.00000051,  -0.00000071,  -0.00000001,  -0.00001430,  -0.00001560,   0.00003909,  -0.00000006,  -0.00000399,   0.00000033
  8.00350000,  -0.00002268,   0.00002393,   0.65003660,   0.00000044,   0.00000087,   0.00000002,  -0.00001395,  -0.00001514,   0.00003785,  -0.00000006,  -0.00000389,   0.00000032
  8.00375000,  -0.00002256,   0.00002899,   0.62500605,   0.00000054,   0.00000175,   0.00000006,  -0.00001359,  -0.00001468,   0.00003661,  -0.00000006,  -0.00000378,   0.00000031
  8.00400000,  -0.00005556,   0.00005204,   0.60002592,   0.00000070,   0.00000142,   0.00000005,  -0.00001323,  -0.00001422,   0.00003536,  -0.00000006,  -0.00000367,   0.00000030
  8.00425000,  -0.00002387,   0.00002787,   0.57501911,   0.00000051,   0.00000160,   0.00000005,  -0.00001286,  -0.00001377,   0.00003411,  -0.00000006,  -0.00000356,   0.00000029
  8.00450000,  -0.00002315,   0.00002814,   0.55001500,   0.00000054,   0.00000184,   0.00000006,  -0.00001249,  -0.00001331,   0.00003286,  -0.00000005,  -0.00000345,   0.00000028
  8.00475000,  -0.00004210,   0.00004053,   0.52501914,   0.00000047,   0.00000002,  -0.00000000,  -0.00001213,  -0.00001284,   0.00003161,  -0.00000005,  -0.00000334,   0.00000027
  8.00500000,  -0.00002153,   0.00002427,   0.50002706,   0.00000042,   0.00000126,   0.00000003,  -0.00001175,  -0.00001238,   0.00003035,  -0.00000005,  -0.00000322,   0.00000026
  8.00525000,  -0.00002171,   0.00002758,   0.47500911,   0.00000055,   0.00000183,   0.00000006,  -0.00001138,  -0.00001192,   0.00002909,  -0.00000005,  -0.00000311,   0.00000025
  8.00550000,  -0.00002114,   0.00002752,   0.45000546,   0.00000060,   0.00000213,   0.00000007,  -0.00001100,  -0.00001146,   0.00002783,  -0.00000005,  -0.00000300,   0.00000024
  8.00575000,  -0.00003478,   0.00003755,   0.42499880,   0.00000072,   0.00000111,   0.00000005,  -0.00001062,  -0.00001099,   0.00002657,  -0.00000004,  -0.00000289,   0.00000023
  8.00600000,  -0.00002270,   0.00002709,   0.40001726,   0.00000060,   0.00000175,   0.00000006,  -0.00001024,  -0.00001053,   0.00002531,  -0.00000004,  -0.00000278,   0.00000022
  8.00625000,  -0.00002045,   0.00002706,   0.37500505,   0.00000055,   0.00000295,   0.00000010,  -0.00000986,  -0.00001006,   0.00002404,  -0.00000004,  -0.00000267,   0.00000021
  8.00650000,  -0.00002018,   0.00002630,   0.35000696,   0.00000057,   0.00000278,   0.00000009,  -0.00000947,  -0.00000960,   0.00002277,  -0.00000004,  -0.00000255,   0.00000020
  8.00675000,  -0.00002068,   0.00002741,   0.32500282,   0.00000058,   0.00000225,   0.00000008,  -0.00000909,  -0.00000913,   0.00002150,  -0.00000004,  -0.00000244,   0.00000019
  8.00700000,  -0.00002050,   0.00002724,   0.30000272,   0.00000056,   0.00000214,   0.00000007,  -0.00000870,  -0.00000867,   0.00002023,  -0.00000004,  -0.00000233,   0.00000018
  8.00725000,  -0.00002037,   0.00002706,   0.27500289,   0.00000056,   0.00000212,   0.00000007,  -0.00000831,  -0.00000820,   0.00001896,  -0.00000003,  -0.00000222,   0.00000017
  8.00750000,  -0.00002050,   0.00002725,   0.25000250,   0.00000056,   0.00000217,   0.00000007,  -0.00000792,  -0.00000773,   0.00001769,  -0.00000003,  -0.00000210,   0.00000016
  8.00775000,  -0.00002056,   0.00002731,   0.22500245,   0.00000056,   0.00000218,   0.00000007,  -0.00000752,  -0.00000726,   0.00001641,  -0.00000003,  -0.00000199,   0.00000015
  8.00800000,  -0.00002053,   0.00002730,   0.20000224,   0.00000056,   0.00000218,   0.00000007,  -0.00000713,  -0.00000679,   0.00001514,  -0.00000003,  -0.00000188,   0.00000014
  8.00825000,  -0.00002054,   0.00002732,   0.17500205,   0.00000056,   0.00000218,   0.00000007,  -0.00000673,  -0.00000633,   0.00001386,  -0.00000003,  -0.00000176,   0.00000012
  8.00850000,  -0.00002055,   0.00002733,   0.15000195,   0.00000057,   0.00000219,   0.00000007,  -0.00000633,  -0.00000586,   0.00001258,  -0.00000002,  -0.00000165,   0.00000011
  8.00875000,  -0.00002058,   0.00002736,   0.12500186,   0.00000057,   0.00000219,   0.00000007,  -0.00000593,  -0.00000539,   0.00001130,  -0.00000002,  -0.00000153,   0.00000010
  8.00900000,  -0.00002056,   0.00002736,   0.10000168,   0.00000057,   0.00000220,   0.00000007,  -0.00000553,  -0.00000492,   0.00001002,  -0.00000002,  -0.00000142,   0.00000009
  8.00925000,  -0.00002085,   0.00002787,   0.07500062,   0.00000060,   0.00000234,   0.00000008,  -0.00000513,  -0.00000445,   0.00000874,  -0.00000002,  -0.00000130,   0.00000008
  8.00950000,  -0.00002078,   0.00002795,   0.04999993,   0.00000059,   0.00000234,   0.00000008,  -0.00000473,  -0.00000397,   0.00000745,  -0.00000002,  -0.00000119,   0.00000007
  8.00975000,  -0.00002074,   0.00002786,   0.02500019,   0.00000059,   0.00000235,   0.00000008,  -0.00000432,  -0.00000350,   0.00000617,  -0.00000001,  -0.00000107,   0.00000006
  8.01000000,  -0.00002073,   0.00002786,  -0.00000004,   0.00000059,   0.00000235,   0.00000008,  -0.00000392,  -0.00000303,   0.00000488,  -0.00000001,  -0.00000096,   0.00000005
  8.14316670,  -0.00002073,   0.00002787,  -0.00000009,   0.00000059,   0.00000235,   0.00000008,  -0.00000042,  -0.00000069,   0.00000086,  -0.00000000,  -0.00000022,   0.00000001
  8.27633330,  -0.00002073,   0.00002786,  -0.00000004,   0.00000059,   0.00000235,   0.00000008,  -0.00000032,  -0.00000030,   0.00000052,  -0.00000000,  -0.00000013,   0.00000001
  8.40950000,  -0.00002073,   0.00002786,  -0.00000004,   0.00000059,   0.00000235,   0.00000008,  -0.00000030,  -0.00000017,   0.00000042,  -0.00000000,  -0.00000010,   0.00000000
  8.54266670,  -0.00002073,   0.00002786,  -0.00000004,   0.00000059,   0.00000235,   0.00000008,  -0.00000030,  -0.00000013,   0.00000039,  -0.00000000,  -0.00000009,   0.00000000
  8.67583330,  -0.00002073,   0.00002786,  -0.00000004,   0.00000059,   0.00000235,   0.00000008,  -0.00000031,  -0.00000011,   0.00000038,  -0.00000000,  -0.00000009,   0.00000000
  8.80900000,  -0.00002073,   0.00002786,  -0.00000003,   0.00000059,   0.00000235,   0.00000008,  -0.00000031,  -0.00000010,   0.00000037,  -0.00000000,  -0.00000009,   0.00000000
  8.94216670,  -0.00002073,   0.00002786,  -0.00000004,   0.00000059,   0.00000235,   0.00000008,  -0.00000031,  -0.00000009,   0.00000037,  -0.00000000,  -0.00000009,   0.00000000
  9.07533330,  -0.00002073,   0.00002786,  -0.00000003,   0.00000059,   0.00000235,   0.00000008,  -0.00000031,  -0.00000009,   0.00000037,  -0.00000000,  -0.00000009,   0.00000000
  9.20850000,  -0.00002073,   0.00002786,  -0.00000004,   0.00000059,   0.00000235,   0.00000008,  -0.00000031,  -0.00000008,   0.00000037,  -0.00000000,  -0.00000009,   0.00000000
  9.34166670,  -0.00002073,   0.00002786,  -0.00000004,   0.00000059,   0.00000235,   0.00000008,  -0.00000032,  -0.00000008,   0.00000037,  -0.00000000,  -0.00000009,   0.00000000
  9.47483330,  -0.00002073,   0.00002786,  -0.00000004,   0.00000059,   0.00000235,   0.00000008,  -0.00000032,  -0.00000008,   0.00000037,  -0.00000000,  -0.00000009,   0.00000000
  9.60800000,  -0.00002073,   0.00002786,  -0.00000004,   0.00000059,   0.00000235,   0.00000008,  -0.00000032,  -0.00000007,   0.00000036,  -0.00000000,  -0.00000009,   0.00000000
  9.74116670,  -0.00002073,   0.00002786,  -0.00000004,   0.00000059,   0.00000235,   0.00000008,  -0.00000032,  -0.00000007,   0.00000036,  -0.00000000,  -0.00000009,   0.00000000
  9.87433330,  -0.00002073,   0.00002786,  -0.00000004,   0.00000059,   0.00000235,   0.00000008,  -0.00000032,  -0.00000007,   0.00000036,  -0.00000000,  -0.00000009,   0.00000000
 10.00750000,  -0.00002073,   0.00002786,  -0.00000004,   0.00000059,   0.00000235,   0.00000008,  -0.00000032,  -0.00000007,   0.00000036,  -0.00000000,  -0.00000009,   0.00000000
 10.14066700,  -0.00002073,   0.00002786,  -0.00000004,   0.00000059,   0.00000235,   0.00000008,  -0.00000032,  -0.00000007,   0.00000036,  -0.00000000,  -0.00000009,   0.00000000
 10.27383300,  -0.00002073,   0.00002787,  -0.00000005,   0.00000059,   0.00000235,   0.00000008,  -0.00000032,  -0.00000007,   0.00000036,  -0.00000000,  -0.00000009,   0.00000000
 10.40700000,  -0.00002073,   0.00002786,  -0.00000004,   0.00000059,   0.00000235,   0.00000008,  -0.00000032,  -0.00000006,   0.00000036,  -0.00000000,  -0.00000009,   0.00000000
 10.54016700,  -0.00002073,   0.00002786,  -0.00000004,   0.00000059,   0.00000235,   0.00000008,  -0.00000032,  -0.00000006,   0.00000036,   0.00000000,  -0.00000008,   0.00000000
 10.67333300,  -0.00002073,   0.00002786,  -0.00000004,   0.00000059,   0.00000235,   0.00000008,  -0.00000032,  -0.00000006,   0.00000036,   0.00000000,  -0.00000008,   0.00000000
 10.80650000,  -0.00002073,   0.00002786,  -0.00000004,   0.00000059,   0.00000235,   0.00000008,  -0.00000032,  -0.00000006,   0.00000036,   0.00000000,  -0.00000008,   0.00000000
 10.93966700,  -0.00002073,   0.00002786,  -0.00000004,   0.00000059,   0.00000235,   0.00000008,  -0.00000032,  -0.00000006,   0.00000036,   0.00000000,  -0.00000008,   0.00000000
 11.07283300,  -0.00002073,   0.00002786,  -0.00000004,   0.00000059,   0.00000235,   0.00000008,  -0.00000032,  -0.00000006,   0.00000035,   0.00000000,  -0.00000008,   0.00000000
 11.20600000,  -0.00002073,   0.00002786,  -0.00000004,   0.00000059,   0.00000235,   0.00000008,  -0.00000032,  -0.00000006,   0.00000035,   0.00000000,  -0.00000008,   0.00000000
 11.33916700,  -0.00002073,   0.00002786,  -0.00000004,   0.00000059,   0.00000235,   0.00000008,  -0.00000032,  -0.00000006,   0.00000035,   0.00000000,  -0.00000008,   0.00000000
 11.47233300,  -0.00002073,   0.00002786,  -0.00000004,   0.00000059,   0.00000235,   0.00000008,  -0.00000032,  -0.00000005,   0.00000035,   0.00000000,  -0.00000008,   0.00000000
 11.60550000,  -0.00002073,   0.00002786,  -0.00000004,   0.00000059,   0.00000235,   0.00000008,  -0.00000032,  -0.00000005,   0.00000035,   0.00000000,  -0.00000008,   0.00000000
 11.73866700,  -0.00002073,   0.00002786,  -0.00000004,   0.00000059,   0.00000235,   0.00000008,  -0.00000032,  -0.00000005,   0.00000035,   0.00000000,  -0.00000008,   0.00000000
 11.87183300,  -0.00002073,   0.00002786,  -0.00000004,   0.00000059,   0.00000235,   0.00000008,  -0.00000032,  -0.00000005,   0.00000035,   0.00000000,  -0.00000008,   0.00000000
 12.00500000,  -0.00002073,   0.00002786,  -0.00000004,   0.00000059,   0.00000235,   0.00000008,  -0.00000032,  -0.00000005,   0.00000035,   0.00000000,  -0.00000008,   0.00000000
 12.13816700,  -0.00002073,   0.00002786,  -0.00000004,   0.00000059,   0.00000235,   0.00000008,  -0.00000032,  -0.00000005,   0.00000035,   0.00000000,  -0.00000008,   0.00000000
 12.27133300,  -0.00002073,   0.00002786,  -0.00000004,   0.00000059,   0.00000235,   0.00000008,  -0.00000032,  -0.00000005,   0.00000035,   0.00000000,  -0.00000008,   0.00000000
 12.40450000,  -0.00002073,   0.00002786,  -0.00000004,   0.00000059,   0.00000235,   0.00000008,  -0.00000032,  -0.00000005,   0.00000035,   0.00000000,  -0.00000008,   0.00000000
 12.53766700,  -0.00002073,   0.00002786,  -0.00000004,   0.00000059,   0.00000235,   0.00000008,  -0.00000032,  -0.00000005,   0.00000034,   0.00000000,  -0.00000008,   0.00000000
 12.67083300,  -0.00002073,   0.00002786,  -0.00000004,   0.00000059,   0.00000235,   0.00000008,  -0.00000032,  -0.00000005,   0.00000034,   0.00000000,  -0.00000008,   0.00000000
 12.80400000,  -0.00002073,   0.00002786,  -0.00000004,   0.00000059,   0.00000235,   0.00000008,  -0.00000032,  -0.00000005,   0.00000034,   0.00000000,  -0.00000008,   0.00000000
 12.93716700,  -0.00002073,   0.00002786,  -0.00000004,   0.00000059,   0.00000235,   0.00000008,  -0.00000032,  -0.00000005,   0.00000034,   0.00000000,  -0.00000008,   0.00000000
 13.07033300,  -0.00002073,   0.00002786,  -0.00000004,   0.00000059,   0.00000235,   0.00000008,  -0.00000032,  -0.00000004,   0.00000034,   0.00000000,  -0.00000008,   0.00000000
 13.20350000,  -0.00002073,   0.00002786,  -0.00000004,   0.00000059,   0.00000235,   0.00000008,  -0.00000032,  -0.00000004,   0.00000034,   0.00000000,  -0.00000008,   0.00000000
 13.33666700,  -0.00002073,   0.00002786,  -0.00000004,   0.00000059,   0.00000235,   0.00000008,  -0.00000032,  -0.00000004,   0.00000034,   0.00000000,  -0.00000008,   0.00000000
 13.46983300,  -0.00002073,   0.00002786,  -0.00000004,   0.00000059,   0.00000235,   0.00000008,  -0.00000032,  -0.00000004,   0.00000034,   0.00000000,  -0.00000008,   0.00000000
 13.60300000,  -0.00002073,   0.00002786,  -0.00000004,   0.00000059,   0.00000235,   0.00000008,  -0.00000032,  -0.00000004,   0.00000034,   0.00000000,  -0.00000008,   0.00000000
 13.73616700,  -0.00002073,   0.00002786,  -0.00000004,   0.00000059,   0.00000235,   0.00000008,  -0.00000032,  -0.00000004,   0.00000034,   0.00000000,  -0.00000008,   0.00000000
 13.86933300,  -0.00002073,   0.00002786,  -0.00000004,   0.00000059,   0.00000235,   0.00000008,  -0.00000032,  -0.00000004,   0.00000034,   0.00000000,  -0.00000008,   0.00000000
 14.00250000,  -0.00002073,   0.00002786,  -0.00000004,   0.00000059,   0.00000235,   0.00000008,  -0.00000032,  -0.00000004,   0.00000034,   0.00000000,  -0.00000008,   0.00000000
 14.13566700,  -0.00002073,   0.00002786,  -0.00000004,   0.00000059,   0.00000235,   0.00000008,  -0.00000031,  -0.00000004,   0.00000033,   0.00000000,  -0.00000008,   0.00000000
 14.26883300,  -0.00002073,   0.00002786,  -0.00000004,   0.00000059,   0.00000235,   0.00000008,  -0.00000031,  -0.00000004,   0.00000033,   0.00000000,  -0.00000008,   0.00000000
 14.40200000,  -0.00002073,   0.00002786,  -0.00000004,   0.00000059,   0.00000235,   0.00000008,  -0.00000031,  -0.00000004,   0.00000033,   0.00000000,  -0.00000008,   0.00000000
 14.53516700,  -0.00002073,   0.00002786,  -0.00000004,   0.00000059,   0.00000235,   0.00000008,  -0.00000031,  -0.00000004,   0.00000033,   0.00000000,  -0.00000008,   0.00000000
 14.66833300,  -0.00002073,   0.00002786,  -0.00000004,   0.00000059,   0.00000235,   0.00000008,  -0.00000031,  -0.00000004,   0.00000033,   0.00000000,  -0.00000008,   0.00000000
 14.80150000,  -0.00002073,   0.00002786,  -0.00000004,   0.00000059,   0.00000235,   0.00000008,  -0.00000031,  -0.00000004,   0.00000033,   0.00000000,  -0.00000008,   0.00000000
 14.93466700,  -0.00002073,   0.00002786,  -0.00000004,   0.00000059,   0.00000235,   0.00000008,  -0.00000031,  -0.00000004,   0.00000033,   0.00000000,  -0.00000008,   0.00000000
 15.06783300,  -0.00002073,   0.00002786,  -0.00000004,   0.00000059,   0.00000235,   0.00000008,  -0.00000031,  -0.00000004,   0.00000033,   0.00000000,  -0.00000008,   0.00000000
 15.20100000,  -0.00002073,   0.00002786,  -0.00000004,   0.00000059,   0.00000235,   0.00000008,  -0.00000031,  -0.00000003,   0.00000033,   0.00000000,  -0.00000008,   0.00000000
 15.33416700,  -0.00002073,   0.00002786,  -0.00000004,   0.00000059,   0.00000235,   0.00000008,  -0.00000031,  -0.00000003,   0.00000033,   0.00000000,  -0.00000008,   0.00000000
 15.46733300,  -0.00002073,   0.00002786,  -0.00000004,   0.00000059,   0.00000235,   0.00000008,  -0.00000031,  -0.00000003,   0.00000033,   0.00000000,  -0.00000008,   0.00000000
 15.60050000,  -0.00002073,   0.00002786,  -0.00000004,   0.00000059,   0.00000235,   0.00000008,  -0.00000031,  -0.00000003,   0.00000033,   0.00000000,  -0.00000008,   0.00000000
 15.73366700,  -0.00002073,   0.00002786,  -0.00000004,   0.00000059,   0.00000235,   0.00000008,  -0.00000031,  -0.00000003,   0.00000032,   0.00000000,  -0.00000008,   0.00000000
 15.86683300,  -0.00002073,   0.00002786,  -0.00000004,   0.00000059,   0.00000235,   0.00000008,  -0.00000031,  -0.00000003,   0.00000032,   0.00000000,  -0.00000008,   0.00000000
 16.00000000,  -0.00002073,   0.00002786,  -0.00000004,   0.00000059,   0.00000235,   0.00000008,  -0.00000031,  -0.00000003,   0.00000032,   0.00000000,  -0.00000008,   0.00000000
