Time (m)    , Stress_xx (MPa), Stress_yy (MPa), Stress_zz (MPa), Stress_xy (MPa), Stress_xz (MPa), Stress_yz (MPa), Strain_xx   , Strain_yy   , Strain_zz   , Strain_xy   , Strain_xz   , Strain_yz   
  0.00000000,   0.00000000,   0.00000000,   0.00000000,   0.00000000,   0.00000000,   0.00000000,   0.00000000,   0.00000000,   0.00000000,   0.00000000,   0.00000000,   0.00000000
  0.00050000,  -0.00000003,  -0.00000002,   0.05000064,   0.00000000,  -0.00000001,   0.00000000,  -0.00000083,  -0.00000095,   0.00000252,  -0.00000000,  -0.00000026,  -0.00000001
  0.00100000,   0.00000018,   0.00000009,   0.10000180,  -0.00000000,  -0.00000006,   0.00000000,  -0.00000169,  -0.00000194,   0.00000509,  -0.00000000,  -0.00000052,  -0.00000002
  0.00150000,   0.00000014,   0.00000030,   0.15000101,  -0.00000000,   0.00000008,   0.00000000,  -0.00000255,  -0.00000295,   0.00000768,  -0.00000000,  -0.00000080,  -0.00000003
  0.00200000,   0.00000014,   0.00000019,   0.20000055,  -0.00000000,   0.00000002,   0.00000000,  -0.00000342,  -0.00000396,   0.00001027,  -0.00000000,  -0.00000107,  -0.00000004
  0.00250000,  -0.00000080,   0.00000141,   0.24999893,  -0.00000000,   0.00000043,  -0.00000001,  -0.00000428,  -0.00000497,   0.00001286,  -0.00000000,  -0.00000134,  -0.00000006
  0.00300000,  -0.00000070,   0.00000148,   0.29999455,   0.00000000,   0.00000046,  -0.00000001,  -0.00000515,  -0.00000598,   0.00001545,  -0.00000000,  -0.00000161,  -0.00000007
  0.00350000,  -0.00000024,   0.00000027,   0.35000074,   0.00000000,   0.00000013,   0.00000000,  -0.00000601,  -0.00000700,   0.00001805,  -0.00000000,  -0.00000189,  -0.00000008
  0.00400000,   0.00000020,  -0.00000002,   0.40000118,   0.00000000,   0.00000007,  -0.00000000,  -0.00000688,  -0.00000801,   0.00002064,  -0.00000000,  -0.00000216,  -0.00000009
  0.00450000,   0.00000008,   0.00000005,   0.44999689,   0.00000000,  -0.00000002,   0.00000000,  -0.00000775,  -0.00000903,   0.00002323,  -0.00000000,  -0.00000244,  -0.00000010
  0.00500000,  -0.00000013,  -0.00000002,   0.50000063,   0.00000000,   0.00000002,   0.00000000,  -0.00000861,  -0.00001005,   0.00002583,  -0.00000000,  -0.00000271,  -0.00000011
  0.00550000,   0.00000026,  -0.00000015,   0.54999755,   0.00000000,  -0.00000014,   0.00000000,  -0.00000948,  -0.00001106,   0.00002842,  -0.00000000,  -0.00000298,  -0.00000012
  0.00600000,  -0.00000010,  -0.00000013,   0.60000179,   0.00000000,   0.00000001,   0.00000000,  -0.00001034,  -0.00001208,   0.00003101,  -0.00000000,  -0.00000326,  -0.00000014
  0.00650000,   0.00000067,   0.00000022,   0.64998514,   0.00000001,  -0.00000035,  -0.00000000,  -0.00001121,  -0.00001310,   0.00003361,  -0.00000001,  -0.00000353,  -0.00000015
  0.00700000,  -0.00000010,  -0.00000011,   0.70000197,   0.00000000,  -0.00000000,   0.00000000,  -0.00001208,  -0.00001411,   0.00003620,  -0.00000001,  -0.00000381,  -0.00000016
  0.00750000,  -0.00000001,   0.00000001,   0.74999928,   0.00000000,   0.00000002,   0.00000000,  -0.00001294,  -0.00001513,   0.00003880,  -0.00000001,  -0.00000408,  -0.00000017
  0.00800000,  -0.00000137,  -0.00000103,   0.80003584,   0.00000000,   0.00000036,   0.00000001,  -0.00001381,  -0.00001615,   0.00004140,  -0.00000001,  -0.00000435,  -0.00000018
  0.00850000,  -0.00000059,  -0.00000048,   0.85001587,  -0.00000000,   0.00000015,   0.00000001,  -0.00001468,  -0.00001717,   0.00004399,  -0.00000001,  -0.00000463,  -0.00000019
  0.00900000,  -0.00000014,  -0.00000010,   0.90000384,   0.00000000,   0.00000006,   0.00000000,  -0.00001554,  -0.00001818,   0.00004658,  -0.00000001,  -0.00000490,  -0.00000020
  0.00950000,  -0.00000004,  -0.00000003,   0.95000136,   0.00000000,   0.00000005,   0.00000000,  -0.00001641,  -0.00001920,   0.00004918,  -0.00000001,  -0.00000518,  -0.00000021
  0.01000000,  -0.00000097,  -0.00000062,   1.00002450,   0.00000000,   0.00000021,   0.00000000,  -0.00001728,  -0.00002022,   0.00005178,  -0.00000001,  -0.00000545,  -0.00000023
  0.07658333,  -0.00000060,  -0.00000096,   1.00001690,  -0.00000001,  -0.00000059,   0.00000002,  -0.00001767,  -0.00002043,   0.00005230,  -0.00000001,  -0.00000559,  -0.00000023
  0.14316667,  -0.00000162,  -0.00000145,   1.00002180,   0.00000000,  -0.00000002,  -0.00000000,  -0.00001799,  -0.00002047,   0.00005263,  -0.00000001,  -0.00000567,  -0.00000023
  0.20975000,  -0.00000168,  -0.00000134,   1.00002150,   0.00000001,   0.00000000,  -0.00000000,  -0.00001827,  -0.00002050,   0.00005292,  -0.00000001,  -0.00000575,  -0.00000023
  0.27633333,  -0.00000890,   0.00000484,   1.00003650,   0.00000000,  -0.00000573,   0.00000007,  -0.00001851,  -0.00002052,   0.00005316,  -0.00000001,  -0.00000582,  -0.00000023
  0.34291667,  -0.00000139,  -0.00000086,   1.00002370,   0.00000001,   0.00000002,  -0.00000001,  -0.00001871,  -0.00002054,   0.00005337,  -0.00000001,  -0.00000587,  -0.00000024
  0.40950000,  -0.00000669,   0.00000377,   1.00003580,   0.00000000,  -0.00000278,   0.00000001,  -0.00001888,  -0.00002055,   0.00005355,  -0.00000001,  -0.00000592,  -0.00000024
  0.47608333,  -0.00000744,   0.00000514,   1.00004070,  -0.00000001,  -0.00000509,   0.00000005,  -0.00001903,  -0.00002057,   0.00005370,  -0.00000001,  -0.00000596,  -0.00000024
  0.54266667,  -0.00000092,  -0.00000036,   1.00002340,   0.00000000,   0.00000005,  -0.00000001,  -0.00001915,  -0.00002058,   0.00005382,  -0.00000001,  -0.00000600,  -0.00000024
  0.60925000,  -0.00000411,   0.00000201,   1.00003040,  -0.00000000,  -0.00000112,   0.00000000,  -0.00001925,  -0.00002059,   0.00005393,  -0.00000001,  -0.00000603,  -0.00000024
  0.67583333,  -0.00000511,   0.00000289,   1.00003740,  -0.00000001,  -0.00000284,   0.00000003,  -0.00001934,  -0.00002060,   0.00005403,  -0.00000001,  -0.00000606,  -0.00000024
  0.74241667,  -0.00000529,   0.00000191,   1.00006100,  -0.00000001,  -0.00000282,   0.00000004,  -0.00001942,  -0.00002061,   0.00005411,  -0.00000001,  -0.00000608,  -0.00000024
  0.80900000,  -0.00000157,   0.00000105,   1.00002210,  -0.00000001,  -0.00000091,  -0.00000000,  -0.00001948,  -0.00002062,   0.00005418,  -0.00000001,  -0.00000610,  -0.00000024
  0.87558333,  -0.00000136,   0.00000063,   1.00002440,  -0.00000001,  -0.00000025,  -0.00000001,  -0.00001954,  -0.00002063,   0.00005424,  -0.00000001,  -0.00000612,  -0.00000024
  0.94216667,  -0.00000238,   0.00000117,   1.00002900,  -0.00000001,  -0.00000092,   0.00000001,  -0.00001958,  -0.00002064,   0.00005429,  -0.00000001,  -0.00000614,  -0.00000024
  1.00875000,  -0.00000307,   0.00000075,   1.00004380,  -0.00000001,  -0.00000120,   0.00000002,  -0.00001962,  -0.00002064,   0.00005433,  -0.00000001,  -0.00000616,  -0.00000024
  1.07533330,  -0.00000138,   0.00000024,   1.00002310,  -0.00000000,  -0.00000045,  -0.00000000,  -0.00001966,  -0.00002065,   0.00005437,  -0.00000001,  -0.00000617,  -0.00000024
  1.14191670,  -0.00000133,  -0.00000008,   1.00002470,  -0.00000000,  -0.00000008,  -0.00000000,  -0.00001968,  -0.00002066,   0.00005440,  -0.00000001,  -0.00000618,  -0.00000024
  1.20850000,  -0.00000185,   0.00000015,   1.00002710,  -0.00000000,  -0.00000042,   0.00000001,  -0.00001971,  -0.00002066,   0.00005443,  -0.00000001,  -0.00000619,  -0.00000024
  1.27508330,  -0.00000218,  -0.00000005,   1.00003450,  -0.00000000,  -0.00000054,   0.00000001,  -0.00001973,  -0.00002067,   0.00005446,  -0.00000001,  -0.00000620,  -0.00000024
  1.34166670,  -0.00000126,  -0.00000028,   1.00002340,  -0.00000000,  -0.00000014,  -0.00000000,  -0.00001975,  -0.00002067,   0.00005448,  -0.00000001,  -0.00000621,  -0.00000024
  1.40825000,  -0.00000121,  -0.00000042,   1.00002450,  -0.00000000,   0.00000006,  -0.00000000,  -0.00001976,  -0.00002068,   0.00005450,  -0.00000001,  -0.00000622,  -0.00000024
  1.47483330,  -0.00000147,  -0.00000026,   1.00002630,  -0.00000000,  -0.00000014,   0.00000000,  -0.00001978,  -0.00002068,   0.00005452,  -0.00000001,  -0.00000623,  -0.00000024
  1.54141670,  -0.00000161,  -0.00000036,   1.00003080,  -0.00000000,  -0.00000019,   0.00000001,  -0.00001979,  -0.00002069,   0.00005454,  -0.00000001,  -0.00000624,  -0.00000024
  1.60800000,  -0.00000108,  -0.00000042,   1.00002380,  -0.00000000,   0.00000002,   0.00000000,  -0.00001980,  -0.00002069,   0.00005455,  -0.00000001,  -0.00000624,  -0.00000024
  1.67458330,   0.00000260,   0.00000023,   0.99993504,  -0.00000000,  -0.00000055,   0.00000000,  -0.00001980,  -0.00002070,   0.00005456,  -0.00000001,  -0.00000625,  -0.00000024
  1.74116670,  -0.00000043,  -0.00000029,   1.00000860,  -0.00000000,   0.00000013,   0.00000001,  -0.00001981,  -0.00002070,   0.00005457,  -0.00000001,  -0.00000626,  -0.00000024
  1.80775000,  -0.00000102,  -0.00000040,   1.00002360,  -0.00000000,   0.00000008,   0.00000000,  -0.00001982,  -0.00002071,   0.00005458,  -0.00000001,  -0.00000626,  -0.00000025
  1.87433330,  -0.00000099,  -0.00000046,   1.00002360,  -0.00000000,   0.00000007,   0.00000000,  -0.00001983,  -0.00002071,   0.00005459,  -0.00000001,  -0.00000627,  -0.00000025
  1.94091670,   0.00000139,   0.00000015,   0.99996389,  -0.00000000,  -0.00000021,  -0.00000000,  -0.00001983,  -0.00002071,   0.00005460,  -0.00000001,  -0.00000627,  -0.00000025
  2.00750000,  -0.00000046,  -0.00000033,   1.00001120,  -0.00000000,   0.00000020,  -0.00000000,  -0.00001983,  -0.00002072,   0.00005461,  -0.00000001,  -0.00000628,  -0.00000025
  2.07408330,  -0.00000096,  -0.00000049,   1.00002290,   0.00000000,   0.00000013,  -0.00000000,  -0.00001984,  -0.00002072,   0.00005462,  -0.00000001,  -0.00000628,  -0.00000025
  2.14066670,  -0.00000095,  -0.00000052,   1.00002310,  -0.00000000,   0.00000011,   0.00000000,  -0.00001984,  -0.00002073,   0.00005463,  -0.00000001,  -0.00000629,  -0.00000025
  2.20725000,   0.00000013,  -0.00000028,   0.99999569,   0.00000000,   0.00000010,  -0.00000000,  -0.00001984,  -0.00002073,   0.00005463,  -0.00000001,  -0.00000629,  -0.00000025
  2.27383330,  -0.00000098,  -0.00000063,   1.00002540,   0.00000000,   0.00000028,  -0.00000000,  -0.00001985,  -0.00002074,   0.00005464,  -0.00000001,  -0.00000630,  -0.00000025
  2.34041670,  -0.00000121,  -0.00000067,   1.00003050,  -0.00000000,   0.00000017,   0.00000000,  -0.00001985,  -0.00002074,   0.00005465,  -0.00000001,  -0.00000630,  -0.00000025
  2.40700000,  -0.00000095,  -0.00000057,   1.00002340,  -0.00000000,   0.00000013,  -0.00000000,  -0.00001985,  -0.00002074,   0.00005466,  -0.00000001,  -0.00000631,  -0.00000025
  2.47358330,  -0.00000171,  -0.00000121,   1.00004930,  -0.00000000,   0.00000073,  -0.00000000,  -0.00001986,  -0.00002075,   0.00005466,  -0.00000001,  -0.00000631,  -0.00000025
  2.54016670,  -0.00000091,  -0.00000058,   1.00002310,  -0.00000000,   0.00000022,  -0.00000000,  -0.00001986,  -0.00002075,   0.00005467,  -0.00000001,  -0.00000632,  -0.00000025
  2.60675000,  -0.00000101,  -0.00000062,   1.00002550,  -0.00000000,   0.00000019,  -0.00000000,  -0.00001986,  -0.00002075,   0.00005467,  -0.00000001,  -0.00000632,  -0.00000025
  2.67333330,  -0.00000002,  -0.00000009,   0.99999755,  -0.00000000,   0.00000001,  -0.00000001,  -0.00001986,  -0.00002076,   0.00005468,  -0.00000001,  -0.00000632,  -0.00000025
  2.73991670,  -0.00000098,  -0.00000063,   1.00002530,  -0.00000000,   0.00000026,  -0.00000000,  -0.00001986,  -0.00002076,   0.00005469,  -0.00000001,  -0.00000633,  -0.00000025
  2.80650000,  -0.00000109,  -0.00000069,   1.00002830,  -0.00000000,   0.00000020,   0.00000000,  -0.00001987,  -0.00002077,   0.00005469,  -0.00000001,  -0.00000633,  -0.00000025
  2.87308330,   0.00000037,   0.00000025,   0.99998406,   0.00000000,  -0.00000017,  -0.00000001,  -0.00001987,  -0.00002077,   0.00005469,  -0.00000001,  -0.00000634,  -0.00000025
  2.93966670,  -0.00000105,  -0.00000066,   1.00002750,  -0.00000000,   0.00000031,  -0.00000000,  -0.00001987,  -0.00002077,   0.00005470,  -0.00000001,  -0.00000634,  -0.00000025
  3.00625000,  -0.00000094,  -0.00000060,   1.00002390,  -0.00000000,   0.00000017,   0.00000000,  -0.00001987,  -0.00002078,   0.00005471,  -0.00000001,  -0.00000634,  -0.00000025
  3.07283330,  -0.00000158,  -0.00000095,   1.00004360,  -0.00000000,   0.00000066,  -0.00000001,  -0.00001987,  -0.00002078,   0.00005471,  -0.00000001,  -0.00000635,  -0.00000025
  3.13941670,  -0.00000084,  -0.00000053,   1.00002110,  -0.00000000,   0.00000020,  -0.00000000,  -0.00001987,  -0.00002078,   0.00005472,  -0.00000001,  -0.00000635,  -0.00000025
  3.20600000,  -0.00000100,  -0.00000064,   1.00002580,  -0.00000000,   0.00000020,  -0.00000000,  -0.00001988,  -0.00002079,   0.00005472,  -0.00000001,  -0.00000635,  -0.00000025
  3.27258330,   0.00000008,   0.00000011,   0.99999180,  -0.00000000,  -0.00000013,  -0.00000000,  -0.00001988,  -0.00002079,   0.00005473,  -0.00000001,  -0.00000636,  -0.00000025
  3.33916670,  -0.00000100,  -0.00000063,   1.00002570,  -0.00000000,   0.00000026,  -0.00000000,  -0.00001988,  -0.00002079,   0.00005473,  -0.00000001,  -0.00000636,  -0.00000025
  3.40575000,  -0.00000095,  -0.00000062,   1.00002420,  -0.00000000,   0.00000019,  -0.00000000,  -0.00001988,  -0.00002080,   0.00005474,  -0.00000001,  -0.00000636,  -0.00000025
  3.47233330,  -0.00000128,  -0.00000074,   1.00003330,  -0.00000000,   0.00000046,  -0.00000000,  -0.00001988,  -0.00002080,   0.00005474,  -0.00000001,  -0.00000637,  -0.00000025
  3.53891670,  -0.00000085,  -0.00000054,   1.00002120,  -0.00000000,   0.00000019,  -0.00000000,  -0.00001988,  -0.00002080,   0.00005475,  -0.00000001,  -0.00000637,  -0.00000025
  3.60550000,  -0.00000100,  -0.00000065,   1.00002560,  -0.00000000,   0.00000021,  -0.00000000,  -0.00001989,  -0.00002081,   0.00005475,  -0.00000001,  -0.00000637,  -0.00000025
  3.67208330,  -0.00000008,   0.00000002,   0.99999644,  -0.00000000,  -0.00000009,  -0.00000000,  -0.00001989,  -0.00002081,   0.00005476,  -0.00000001,  -0.00000638,  -0.00000025
  3.73866670,  -0.00000099,  -0.00000063,   1.00002530,  -0.00000000,   0.00000024,  -0.00000000,  -0.00001989,  -0.00002081,   0.00005476,  -0.00000001,  -0.00000638,  -0.00000025
  3.80525000,  -0.00000108,  -0.00000071,   1.00002830,  -0.00000000,   0.00000023,  -0.00000000,  -0.00001989,  -0.00002081,   0.00005477,  -0.00000001,  -0.00000638,  -0.00000025
  3.87183330,   0.00000015,   0.00000013,   0.99999036,  -0.00000000,  -0.00000017,  -0.00000001,  -0.00001989,  -0.00002082,   0.00005477,  -0.00000001,  -0.00000639,  -0.00000025
  3.93841670,  -0.00000113,  -0.00000071,   1.00002970,  -0.00000000,   0.00000032,  -0.00000000,  -0.00001990,  -0.00002082,   0.00005478,  -0.00000001,  -0.00000639,  -0.00000025
  4.00500000,  -0.00000090,  -0.00000059,   1.00002290,  -0.00000000,   0.00000017,  -0.00000000,  -0.00001990,  -0.00002082,   0.00005478,  -0.00000001,  -0.00000639,  -0.00000025
  4.07158330,  -0.00000240,  -0.00000146,   1.00006720,  -0.00000001,   0.00000093,  -0.00000001,  -0.00001990,  -0.00002083,   0.00005479,  -0.00000001,  -0.00000640,  -0.00000025
  4.13816670,  -0.00000085,  -0.00000054,   1.00002110,  -0.00000000,   0.00000018,  -0.00000000,  -0.00001990,  -0.00002083,   0.00005479,  -0.00000001,  -0.00000640,  -0.00000025
  4.20475000,  -0.00000099,  -0.00000064,   1.00002530,  -0.00000000,   0.00000021,  -0.00000000,  -0.00001990,  -0.00002083,   0.00005480,  -0.00000001,  -0.00000640,  -0.00000025
  4.27133330,  -0.00000015,  -0.00000006,   0.99999931,  -0.00000000,  -0.00000007,  -0.00000000,  -0.00001990,  -0.00002083,   0.00005480,  -0.00000001,  -0.00000640,  -0.00000025
  4.33791670,  -0.00000107,  -0.00000067,   1.00002760,  -0.00000000,   0.00000027,  -0.00000000,  -0.00001991,  -0.00002084,   0.00005481,  -0.00000001,  -0.00000641,  -0.00000025
  4.40450000,  -0.00000093,  -0.00000060,   1.00002350,  -0.00000000,   0.00000018,  -0.00000000,  -0.00001991,  -0.00002084,   0.00005481,  -0.00000001,  -0.00000641,  -0.00000025
  4.47108330,  -0.00000183,  -0.00000110,   1.00005010,  -0.00000000,   0.00000066,  -0.00000001,  -0.00001991,  -0.00002084,   0.00005482,  -0.00000001,  -0.00000641,  -0.00000025
  4.53766670,  -0.00000088,  -0.00000056,   1.00002190,  -0.00000000,   0.00000019,  -0.00000000,  -0.00001991,  -0.00002085,   0.00005482,  -0.00000001,  -0.00000642,  -0.00000025
  4.60425000,  -0.00000098,  -0.00000064,   1.00002520,  -0.00000000,   0.00000021,  -0.00000000,  -0.00001991,  -0.00002085,   0.00005483,  -0.00000001,  -0.00000642,  -0.00000025
  4.67083330,  -0.00000034,  -0.00000018,   1.00000460,  -0.00000000,  -0.00000001,  -0.00000000,  -0.00001992,  -0.00002085,   0.00005483,  -0.00000001,  -0.00000642,  -0.00000025
  4.73741670,  -0.00000103,  -0.00000065,   1.00002650,  -0.00000000,   0.00000025,  -0.00000000,  -0.00001992,  -0.00002085,   0.00005484,  -0.00000001,  -0.00000642,  -0.00000025
  4.80400000,  -0.00000094,  -0.00000061,   1.00002390,  -0.00000000,   0.00000019,  -0.00000000,  -0.00001992,  -0.00002086,   0.00005484,  -0.00000001,  -0.00000643,  -0.00000025
  4.87058330,  -0.00000152,  -0.00000091,   1.00004040,  -0.00000000,   0.00000051,  -0.00000000,  -0.00001992,  -0.00002086,   0.00005485,  -0.00000001,  -0.00000643,  -0.00000025
  4.93716670,  -0.00000090,  -0.00000058,   1.00002250,  -0.00000000,   0.00000019,  -0.00000000,  -0.00001992,  -0.00002086,   0.00005485,  -0.00000001,  -0.00000643,  -0.00000025
  5.00375000,  -0.00000434,  -0.00000269,   1.00012630,  -0.00000001,   0.00000175,  -0.00000001,  -0.00001993,  -0.00002087,   0.00005486,  -0.00000001,  -0.00000644,  -0.00000025
  5.07033330,  -0.00000141,  -0.00000088,   1.00003850,  -0.00000000,   0.00000043,   0.00000000,  -0.00001993,  -0.00002087,   0.00005486,  -0.00000001,  -0.00000644,  -0.00000025
  5.13691670,  -0.00000112,  -0.00000072,   1.00002920,  -0.00000000,   0.00000027,  -0.00000000,  -0.00001993,  -0.00002087,   0.00005487,  -0.00000001,  -0.00000644,  -0.00000025
  5.20350000,  -0.00000108,  -0.00000069,   1.00002780,   0.00000000,   0.00000025,   0.00000000,  -0.00001993,  -0.00002087,   0.00005487,  -0.00000001,  -0.00000644,  -0.00000025
  5.27008330,  -0.00000068,  -0.00000039,   1.00001480,  -0.00000000,   0.00000011,  -0.00000000,  -0.00001993,  -0.00002087,   0.00005488,  -0.00000001,  -0.00000645,  -0.00000025
  5.33666670,  -0.00000111,  -0.00000071,   1.00002880,  -0.00000000,   0.00000028,   0.00000000,  -0.00001994,  -0.00002088,   0.00005488,  -0.00000001,  -0.00000645,  -0.00000025
  5.40325000,  -0.00000093,  -0.00000060,   1.00002340,   0.00000000,   0.00000019,   0.00000000,  -0.00001994,  -0.00002088,   0.00005488,  -0.00000001,  -0.00000645,  -0.00000025
  5.46983330,  -0.00000208,  -0.00000126,   1.00005710,   0.00000000,   0.00000074,   0.00000000,  -0.00001994,  -0.00002088,   0.00005489,  -0.00000001,  -0.00000645,  -0.00000025
  5.53641670,  -0.00000154,  -0.00000099,   1.00004240,  -0.00000000,   0.00000049,   0.00000000,  -0.00001994,  -0.00002088,   0.00005490,  -0.00000001,  -0.00000646,  -0.00000025
  5.60300000,  -0.00000144,  -0.00000093,   1.00003920,   0.00000000,   0.00000041,  -0.00000000,  -0.00001995,  -0.00002089,   0.00005490,  -0.00000001,  -0.00000646,  -0.00000025
  5.66958330,  -0.00000093,  -0.00000060,   1.00002350,   0.00000000,   0.00000018,   0.00000000,  -0.00001995,  -0.00002089,   0.00005490,  -0.00000001,  -0.00000646,  -0.00000025
  5.73616670,  -0.00000376,  -0.00000235,   1.00010840,   0.00000000,   0.00000146,  -0.00000001,  -0.00001995,  -0.00002089,   0.00005491,  -0.00000001,  -0.00000646,  -0.00000025
  5.80275000,  -0.00000115,  -0.00000074,   1.00003010,  -0.00000000,   0.00000031,  -0.00000000,  -0.00001995,  -0.00002089,   0.00005491,  -0.00000001,  -0.00000646,  -0.00000025
  5.86933330,  -0.00000104,  -0.00000067,   1.00002680,   0.00000000,   0.00000024,   0.00000000,  -0.00001995,  -0.00002090,   0.00005492,  -0.00000001,  -0.00000647,  -0.00000025
  5.93591670,  -0.00000096,  -0.00000062,   1.00002440,   0.00000000,   0.00000020,   0.00000000,  -0.00001996,  -0.00002090,   0.00005492,  -0.00000001,  -0.00000647,  -0.00000025
  6.00250000,  -0.00000144,  -0.00000088,   1.00003800,   0.00000000,   0.00000044,   0.00000000,  -0.00001996,  -0.00002090,   0.00005493,  -0.00000001,  -0.00000647,  -0.00000025
  6.06908330,  -0.00000092,  -0.00000059,   1.00002310,   0.00000000,   0.00000020,   0.00000000,  -0.00001996,  -0.00002090,   0.00005493,  -0.00000001,  -0.00000647,  -0.00000025
  6.13566670,  -0.00000073,  -0.00000048,   1.00001740,   0.00000000,   0.00000009,   0.00000000,  -0.00001996,  -0.00002090,   0.00005494,  -0.00000001,  -0.00000648,  -0.00000025
  6.20225000,  -0.00000316,  -0.00000196,   1.00008980,  -0.00000000,   0.00000122,  -0.00000000,  -0.00001997,  -0.00002091,   0.00005494,  -0.00000001,  -0.00000648,  -0.00000025
  6.26883330,  -0.00000202,  -0.00000128,   1.00005620,  -0.00000000,   0.00000070,   0.00000000,  -0.00001997,  -0.00002091,   0.00005495,  -0.00000001,  -0.00000648,  -0.00000025
  6.33541670,  -0.00000093,  -0.00000060,   1.00002360,  -0.00000000,   0.00000019,   0.00000000,  -0.00001997,  -0.00002091,   0.00005495,  -0.00000001,  -0.00000648,  -0.00000025
  6.40200000,  -0.00000103,  -0.00000066,   1.00002640,   0.00000000,   0.00000023,   0.00000000,  -0.00001997,  -0.00002091,   0.00005495,  -0.00000001,  -0.00000648,  -0.00000025
  6.46858330,  -0.00000021,  -0.00000011,   1.00000160,  -0.00000000,  -0.00000009,   0.00000001,  -0.00001997,  -0.00002091,   0.00005496,  -0.00000001,  -0.00000649,  -0.00000025
  6.53516670,  -0.00000126,  -0.00000080,   1.00003300,   0.00000000,   0.00000034,   0.00000000,  -0.00001998,  -0.00002092,   0.00005496,  -0.00000001,  -0.00000649,  -0.00000025
  6.60175000,  -0.00000095,  -0.00000061,   1.00002400,   0.00000000,   0.00000020,   0.00000000,  -0.00001998,  -0.00002092,   0.00005497,  -0.00000001,  -0.00000649,  -0.00000025
  6.66833330,  -0.00000260,  -0.00000161,   1.00007260,   0.00000000,   0.00000095,  -0.00000000,  -0.00001998,  -0.00002092,   0.00005497,  -0.00000001,  -0.00000649,  -0.00000025
  6.73491670,  -0.00000218,  -0.00000139,   1.00006090,  -0.00000000,   0.00000075,   0.00000000,  -0.00001998,  -0.00002092,   0.00005498,  -0.00000001,  -0.00000649,  -0.00000025
  6.80150000,  -0.00000073,  -0.00000047,   1.00001750,   0.00000000,   0.00000010,   0.00000000,  -0.00001999,  -0.00002092,   0.00005498,  -0.00000001,  -0.00000650,  -0.00000025
  6.86808330,  -0.00000104,  -0.00000066,   1.00002640,   0.00000000,   0.00000023,   0.00000000,  -0.00001999,  -0.00002093,   0.00005499,  -0.00000001,  -0.00000650,  -0.00000025
  6.93466670,   0.00000082,   0.00000054,   0.99997031,  -0.00000000,  -0.00000055,   0.00000001,  -0.00001999,  -0.00002093,   0.00005499,  -0.00000001,  -0.00000650,  -0.00000025
  7.00125000,  -0.00000104,  -0.00000066,   1.00002650,   0.00000000,   0.00000024,   0.00000000,  -0.00001999,  -0.00002093,   0.00005499,  -0.00000001,  -0.00000650,  -0.00000025
  7.06783330,  -0.00000096,  -0.00000062,   1.00002440,   0.00000000,   0.00000020,   0.00000000,  -0.00002000,  -0.00002093,   0.00005500,  -0.00000001,  -0.00000650,  -0.00000025
  7.13441670,  -0.00000135,  -0.00000083,   1.00003510,   0.00000000,   0.00000040,   0.00000000,  -0.00002000,  -0.00002094,   0.00005500,  -0.00000001,  -0.00000651,  -0.00000025
  7.20100000,  -0.00000085,  -0.00000055,   1.00002100,   0.00000000,   0.00000016,   0.00000000,  -0.00002000,  -0.00002094,   0.00005501,  -0.00000001,  -0.00000651,  -0.00000025
  7.26758330,  -0.00000393,  -0.00000247,   1.00011250,   0.00000000,   0.00000153,  -0.00000000,  -0.00002000,  -0.00002094,   0.00005502,  -0.00000001,  -0.00000651,  -0.00000025
  7.33416670,  -0.00000181,  -0.00000115,   1.00004970,  -0.00000000,   0.00000058,   0.00000000,  -0.00002001,  -0.00002094,   0.00005502,  -0.00000001,  -0.00000651,  -0.00000025
  7.40075000,  -0.00000126,  -0.00000080,   1.00003300,   0.00000000,   0.00000033,   0.00000000,  -0.00002001,  -0.00002094,   0.00005502,  -0.00000001,  -0.00000651,  -0.00000025
  7.46733330,  -0.00000112,  -0.00000072,   1.00002920,   0.00000000,   0.00000027,   0.00000000,  -0.00002001,  -0.00002094,   0.00005503,  -0.00000001,  -0.00000652,  -0.00000025
  7.53391670,  -0.00000086,  -0.00000052,   1.00002030,   0.00000000,   0.00000018,   0.00000001,  -0.00002001,  -0.00002095,   0.00005503,  -0.00000001,  -0.00000652,  -0.00000025
  7.60050000,  -0.00000116,  -0.00000074,   1.00003030,   0.00000000,   0.00000030,   0.00000000,  -0.00002001,  -0.00002095,   0.00005503,  -0.00000001,  -0.00000652,  -0.00000025
  7.66708330,  -0.00000094,  -0.00000061,   1.00002360,   0.00000000,   0.00000019,   0.00000000,  -0.00002002,  -0.00002095,   0.00005504,  -0.00000001,  -0.00000652,  -0.00000025
  7.73366670,  -0.00000225,  -0.00000140,   1.00006270,   0.00000000,   0.00000079,   0.00000000,  -0.00002002,  -0.00002095,   0.00005504,  -0.00000001,  -0.00000652,  -0.00000025
  7.80025000,  -0.00000126,  -0.00000081,   1.00003340,   0.00000000,   0.00000034,   0.00000000,  -0.00002002,  -0.00002095,   0.00005505,  -0.00000001,  -0.00000652,  -0.00000025
  7.86683330,  -0.00000104,  -0.00000067,   1.00002650,   0.00000000,   0.00000024,   0.00000000,  -0.00002002,  -0.00002096,   0.00005505,  -0.00000001,  -0.00000653,  -0.00000025
  7.93341670,  -0.00000106,  -0.00000068,   1.00002730,   0.00000000,   0.00000024,   0.00000000,  -0.00002003,  -0.00002096,   0.00005506,  -0.00000001,  -0.00000653,  -0.00000025
  8.00000000,  -0.00000040,  -0.00000024,   1.00000670,   0.00000000,  -0.00000002,   0.00000001,  -0.00002003,  -0.00002096,   0.00005506,  -0.00000001,  -0.00000653,  -0.00000025
  8.00025000,   0.00000020,   0.00000049,   0.97500338,  -0.00000000,  -0.00000018,  -0.00000001,  -0.00001963,  -0.00002050,   0.00005382,  -0.00000001,  -0.00000641,  -0.00000024
  8.00050000,  -0.00000152,  -0.00000129,   0.95000337,   0.00000002,  -0.00000007,  -0.00000001,  -0.00001920,  -0.00002001,   0.00005254,  -0.00000001,  -0.00000627,  -0.00000024
  8.00075000,  -0.00000031,  -0.00000650,   0.92501566,   0.00000003,  -0.00000184,   0.00000003,  -0.00001877,  -0.00001952,   0.00005126,  -0.00000001,  -0.00000614,  -0.00000023
  8.00100000,  -0.00000116,  -0.00000411,   0.90000210,   0.00000002,  -0.00000091,   0.00000001,  -0.00001834,  -0.00001902,   0.00004997,  -0.00000001,  -0.00000601,  -0.00000023
  8.00125000,  -0.00000175,  -0.00000239,   0.87500559,   0.00000002,  -0.00000015,   0.00000000,  -0.00001791,  -0.00001852,   0.00004868,  -0.00000001,  -0.00000587,  -0.00000022
  8.00150000,  -0.00000089,  -0.00000131,   0.85000266,   0.00000000,  -0.00000012,  -0.00000000,  -0.00001748,  -0.00001802,   0.00004738,  -0.00000001,  -0.00000573,  -0.00000022
  8.00175000,   0.00000098,   0.00000392,   0.82492388,  -0.00000000,  -0.00000060,  -0.00000001,  -0.00001704,  -0.00001751,   0.00004608,  -0.00000001,  -0.00000560,  -0.00000021
  8.00200000,  -0.00000079,   0.00000037,   0.80001398,  -0.00000001,   0.00000026,  -0.00000000,  -0.00001661,  -0.00001700,   0.00004479,  -0.00000001,  -0.00000546,  -0.00000021
  8.00225000,   0.00000087,  -0.00000026,   0.77500596,  -0.00000002,  -0.00000019,   0.00000000,  -0.00001618,  -0.00001650,   0.00004350,  -0.00000001,  -0.00000532,  -0.00000020
  8.00250000,   0.00000023,   0.00000017,   0.75000995,  -0.00000002,   0.00000001,   0.00000000,  -0.00001574,  -0.00001599,   0.00004220,  -0.00000001,  -0.00000519,  -0.00000019
  8.00275000,   0.00000289,   0.00000249,   0.72494303,  -0.00000001,  -0.00000089,   0.00000000,  -0.00001531,  -0.00001548,   0.00004090,  -0.00000001,  -0.00000505,  -0.00000019
  8.00300000,   0.00000010,   0.00000025,   0.70000632,  -0.00000001,  -0.00000001,   0.00000000,  -0.00001488,  -0.00001497,   0.00003961,  -0.00000001,  -0.00000491,  -0.00000018
  8.00325000,  -0.00000032,  -0.00000035,   0.67501516,  -0.00000001,   0.00000010,   0.00000001,  -0.00001445,  -0.00001447,   0.00003831,  -0.00000001,  -0.00000478,  -0.00000018
  8.00350000,   0.00000006,   0.00000001,   0.65000067,  -0.00000000,  -0.00000009,   0.00000000,  -0.00001401,  -0.00001396,   0.00003701,  -0.00000001,  -0.00000464,  -0.00000017
  8.00375000,  -0.00000043,  -0.00000028,   0.62500693,  -0.00000000,   0.00000001,   0.00000000,  -0.00001358,  -0.00001345,   0.00003572,  -0.00000001,  -0.00000450,  -0.00000017
  8.00400000,   0.00000184,   0.00000147,   0.59995001,   0.00000000,  -0.00000076,   0.00000001,  -0.00001315,  -0.00001294,   0.00003442,  -0.00000001,  -0.00000437,  -0.00000016
  8.00425000,   0.00000013,   0.00000016,   0.57498793,  -0.00000000,  -0.00000024,   0.00000001,  -0.00001271,  -0.00001244,   0.00003312,  -0.00000001,  -0.00000423,  -0.00000015
  8.00450000,  -0.00000045,  -0.00000036,   0.55000114,   0.00000000,  -0.00000006,   0.00000001,  -0.00001228,  -0.00001193,   0.00003183,  -0.00000001,  -0.00000409,  -0.00000015
  8.00475000,  -0.00000042,  -0.00000032,   0.52500033,   0.00000000,  -0.00000007,   0.00000001,  -0.00001185,  -0.00001142,   0.00003053,  -0.00000001,  -0.00000396,  -0.00000014
  8.00500000,  -0.00000119,  -0.00000076,   0.50001629,   0.00000000,   0.00000019,   0.00000000,  -0.00001142,  -0.00001091,   0.00002923,  -0.00000001,  -0.00000382,  -0.00000014
  8.00525000,  -0.00000026,  -0.00000016,   0.47499689,   0.00000000,  -0.00000010,   0.00000001,  -0.00001098,  -0.00001040,   0.00002794,  -0.00000001,  -0.00000368,  -0.00000013
  8.00550000,  -0.00000040,  -0.00000028,   0.45000101,   0.00000000,  -0.00000007,   0.00000001,  -0.00001055,  -0.00000989,   0.00002664,  -0.00000001,  -0.00000354,  -0.00000013
  8.00575000,  -0.00000006,  -0.00000008,   0.42499529,   0.00000000,  -0.00000016,   0.00000001,  -0.00001012,  -0.00000939,   0.00002534,  -0.00000001,  -0.00000341,  -0.00000012
  8.00600000,  -0.00000032,  -0.00000019,   0.40000215,   0.00000000,  -0.00000003,   0.00000000,  -0.00000968,  -0.00000888,   0.00002405,  -0.00000001,  -0.00000327,  -0.00000012
  8.00625000,  -0.00000041,  -0.00000023,   0.37500421,  -0.00000000,   0.00000000,   0.00000000,  -0.00000925,  -0.00000837,   0.00002275,  -0.00000001,  -0.00000313,  -0.00000011
  8.00650000,  -0.00000037,  -0.00000022,   0.35000143,  -0.00000000,  -0.00000004,   0.00000000,  -0.00000882,  -0.00000786,   0.00002145,  -0.00000001,  -0.00000300,  -0.00000010
  8.00675000,  -0.00000045,  -0.00000026,   0.32500455,  -0.00000000,   0.00000001,   0.00000000,  -0.00000838,  -0.00000735,   0.00002015,  -0.00000001,  -0.00000286,  -0.00000010
  8.00700000,  -0.00000028,  -0.00000015,   0.30000128,  -0.00000000,  -0.00000004,   0.00000000,  -0.00000795,  -0.00000684,   0.00001886,  -0.00000000,  -0.00000272,  -0.00000009
  8.00725000,  -0.00000027,  -0.00000015,   0.27499944,   0.00000000,  -0.00000006,   0.00000000,  -0.00000752,  -0.00000634,   0.00001756,  -0.00000000,  -0.00000259,  -0.00000009
  8.00750000,  -0.00000010,  -0.00000002,   0.24999554,  -0.00000000,  -0.00000011,   0.00000000,  -0.00000709,  -0.00000583,   0.00001626,  -0.00000000,  -0.00000245,  -0.00000008
  8.00775000,  -0.00000038,  -0.00000022,   0.22500165,   0.00000000,  -0.00000002,   0.00000000,  -0.00000665,  -0.00000532,   0.00001496,  -0.00000000,  -0.00000231,  -0.00000008
  8.00800000,  -0.00000040,  -0.00000024,   0.20000179,   0.00000000,  -0.00000003,   0.00000000,  -0.00000622,  -0.00000481,   0.00001367,  -0.00000000,  -0.00000218,  -0.00000007
  8.00825000,  -0.00000038,  -0.00000022,   0.17500051,   0.00000000,  -0.00000004,   0.00000000,  -0.00000579,  -0.00000430,   0.00001237,  -0.00000000,  -0.00000204,  -0.00000006
  8.00850000,  -0.00000044,  -0.00000027,   0.15000159,   0.00000000,  -0.00000002,   0.00000000,  -0.00000535,  -0.00000379,   0.00001107,  -0.00000000,  -0.00000190,  -0.00000006
  8.00875000,  -0.00000040,  -0.00000024,   0.12500037,   0.00000000,  -0.00000003,   0.00000001,  -0.00000492,  -0.00000328,   0.00000977,  -0.00000000,  -0.00000176,  -0.00000005
  8.00900000,  -0.00000044,  -0.00000026,   0.10000154,   0.00000000,  -0.00000002,   0.00000001,  -0.00000449,  -0.00000278,   0.00000848,  -0.00000000,  -0.00000163,  -0.00000005
  8.00925000,  -0.00000042,  -0.00000025,   0.07500083,   0.00000000,  -0.00000002,   0.00000001,  -0.00000405,  -0.00000227,   0.00000718,  -0.00000000,  -0.00000149,  -0.00000004
  8.00950000,  -0.00000037,  -0.00000022,   0.04999949,   0.00000000,  -0.00000004,   0.00000001,  -0.00000362,  -0.00000176,   0.00000588,  -0.00000000,  -0.00000135,  -0.00000003
  8.00975000,  -0.00000041,  -0.00000025,   0.02500034,   0.00000000,  -0.00000002,   0.00000001,  -0.00000319,  -0.00000125,   0.00000458,  -0.00000000,  -0.00000122,  -0.00000003
  8.01000000,  -0.00000040,  -0.00000024,   0.00000001,   0.00000000,  -0.00000002,   0.00000001,  -0.00000275,  -0.00000074,   0.00000328,  -0.00000000,  -0.00000108,  -0.00000002
  8.14316670,  -0.00000040,  -0.00000024,  -0.00000000,   0.00000000,  -0.00000002,   0.00000001,  -0.00000205,  -0.00000050,   0.00000245,  -0.00000000,  -0.00000086,  -0.00000002
  8.27633330,  -0.00000040,  -0.00000024,  -0.00000001,   0.00000000,  -0.00000002,   0.00000001,  -0.00000158,  -0.00000045,   0.00000196,  -0.00000000,  -0.00000073,  -0.00000002
  8.40950000,  -0.00000040,  -0.00000024,   0.00000001,   0.00000000,  -0.00000002,   0.00000001,  -0.00000122,  -0.00000042,   0.00000159,  -0.00000000,  -0.00000064,  -0.00000001
  8.54266670,  -0.00000040,  -0.00000024,  -0.00000002,   0.00000000,  -0.00000002,   0.00000001,  -0.00000096,  -0.00000039,   0.00000133,  -0.00000000,  -0.00000056,  -0.00000001
  8.67583330,  -0.00000040,  -0.00000024,  -0.00000005,   0.00000000,  -0.00000002,   0.00000001,  -0.00000077,  -0.00000038,   0.00000113,  -0.00000000,  -0.00000050,  -0.00000001
  8.80900000,  -0.00000040,  -0.00000024,   0.00000002,   0.00000000,  -0.00000002,   0.00000001,  -0.00000063,  -0.00000036,   0.00000098,  -0.00000000,  -0.00000046,  -0.00000001
  8.94216670,  -0.00000040,  -0.00000024,   0.00000000,   0.00000000,  -0.00000002,   0.00000001,  -0.00000052,  -0.00000035,   0.00000087,  -0.00000000,  -0.00000042,  -0.00000001
  9.07533330,  -0.00000040,  -0.00000024,   0.00000001,   0.00000000,  -0.00000002,   0.00000001,  -0.00000045,  -0.00000034,   0.00000079,  -0.00000000,  -0.00000039,  -0.00000001
  9.20850000,  -0.00000040,  -0.00000024,   0.00000000,   0.00000000,  -0.00000002,   0.00000001,  -0.00000039,  -0.00000033,   0.00000073,  -0.00000000,  -0.00000037,  -0.00000001
  9.34166670,  -0.00000040,  -0.00000024,   0.00000000,   0.00000000,  -0.00000002,   0.00000001,  -0.00000035,  -0.00000032,   0.00000069,  -0.00000000,  -0.00000035,  -0.00000001
  9.47483330,  -0.00000040,  -0.00000024,  -0.00000000,   0.00000000,  -0.00000002,   0.00000001,  -0.00000032,  -0.00000031,   0.00000065,  -0.00000000,  -0.00000034,  -0.00000001
  9.60800000,  -0.00000040,  -0.00000024,  -0.00000001,   0.00000000,  -0.00000002,   0.00000001,  -0.00000030,  -0.00000031,   0.00000063,  -0.00000000,  -0.00000032,  -0.00000001
  9.74116670,  -0.00000040,  -0.00000024,   0.00000002,   0.00000000,  -0.00000002,   0.00000001,  -0.00000029,  -0.00000030,   0.00000061,  -0.00000000,  -0.00000031,  -0.00000001
  9.87433330,  -0.00000040,  -0.00000024,  -0.00000001,   0.00000000,  -0.00000002,   0.00000001,  -0.00000028,  -0.00000029,   0.00000059,  -0.00000000,  -0.00000030,  -0.00000001
 10.00750000,  -0.00000040,  -0.00000024,   0.00000001,   0.00000000,  -0.00000002,   0.00000001,  -0.00000027,  -0.00000029,   0.00000058,  -0.00000000,  -0.00000029,  -0.00000001
 10.14066700,  -0.00000040,  -0.00000024,   0.00000003,   0.00000000,  -0.00000002,   0.00000001,  -0.00000027,  -0.00000028,   0.00000057,  -0.00000000,  -0.00000029,  -0.00000001
 10.27383300,  -0.00000040,  -0.00000024,   0.00000000,   0.00000000,  -0.00000002,   0.00000001,  -0.00000027,  -0.00000028,   0.00000057,  -0.00000000,  -0.00000028,  -0.00000001
 10.40700000,  -0.00000040,  -0.00000024,   0.00000001,   0.00000000,  -0.00000002,   0.00000001,  -0.00000027,  -0.00000027,   0.00000056,  -0.00000000,  -0.00000027,  -0.00000001
 10.54016700,  -0.00000040,  -0.00000024,   0.00000003,   0.00000000,  -0.00000002,   0.00000001,  -0.00000027,  -0.00000027,   0.00000056,  -0.00000000,  -0.00000027,  -0.00000001
 10.67333300,  -0.00000040,  -0.00000024,  -0.00000000,   0.00000000,  -0.00000002,   0.00000001,  -0.00000027,  -0.00000026,   0.00000055,  -0.00000000,  -0.00000026,  -0.00000001
 10.80650000,  -0.00000040,  -0.00000024,  -0.00000001,   0.00000000,  -0.00000002,   0.00000001,  -0.00000027,  -0.00000026,   0.00000055,  -0.00000000,  -0.00000026,  -0.00000001
 10.93966700,  -0.00000040,  -0.00000024,   0.00000003,   0.00000000,  -0.00000002,   0.00000001,  -0.00000027,  -0.00000025,   0.00000054,  -0.00000000,  -0.00000025,  -0.00000001
 11.07283300,  -0.00000040,  -0.00000024,   0.00000001,   0.00000000,  -0.00000002,   0.00000001,  -0.00000027,  -0.00000025,   0.00000054,  -0.00000000,  -0.00000025,  -0.00000001
 11.20600000,  -0.00000040,  -0.00000024,  -0.00000001,   0.00000000,  -0.00000002,   0.00000001,  -0.00000027,  -0.00000025,   0.00000054,  -0.00000000,  -0.00000024,  -0.00000001
 11.33916700,  -0.00000040,  -0.00000024,  -0.00000000,   0.00000000,  -0.00000002,   0.00000001,  -0.00000027,  -0.00000024,   0.00000054,  -0.00000000,  -0.00000024,  -0.00000001
 11.47233300,  -0.00000040,  -0.00000024,   0.00000001,   0.00000000,  -0.00000002,   0.00000001,  -0.00000027,  -0.00000024,   0.00000053,  -0.00000000,  -0.00000023,  -0.00000000
 11.60550000,  -0.00000040,  -0.00000024,   0.00000001,   0.00000000,  -0.00000002,   0.00000001,  -0.00000028,  -0.00000023,   0.00000053,  -0.00000000,  -0.00000023,  -0.00000000
 11.73866700,  -0.00000040,  -0.00000024,   0.00000001,   0.00000000,  -0.00000002,   0.00000001,  -0.00000028,  -0.00000023,   0.00000053,  -0.00000000,  -0.00000022,  -0.00000000
 11.87183300,  -0.00000040,  -0.00000024,   0.00000001,   0.00000000,  -0.00000002,   0.00000001,  -0.00000028,  -0.00000023,   0.00000053,  -0.00000000,  -0.00000022,  -0.00000000
 12.00500000,  -0.00000040,  -0.00000024,   0.00000001,   0.00000000,  -0.00000002,   0.00000001,  -0.00000028,  -0.00000022,   0.00000052,  -0.00000000,  -0.00000022,  -0.00000000
 12.13816700,  -0.00000040,  -0.00000024,   0.00000001,   0.00000000,  -0.00000002,   0.00000001,  -0.00000028,  -0.00000022,   0.00000052,  -0.00000000,  -0.00000021,  -0.00000000
 12.27133300,  -0.00000040,  -0.00000024,   0.00000001,   0.00000000,  -0.00000002,   0.00000001,  -0.00000028,  -0.00000022,   0.00000052,  -0.00000000,  -0.00000021,  -0.00000000
 12.40450000,  -0.00000040,  -0.00000024,   0.00000001,   0.00000000,  -0.00000002,   0.00000001,  -0.00000028,  -0.00000022,   0.00000052,  -0.00000000,  -0.00000021,  -0.00000000
 12.53766700,  -0.00000040,  -0.00000024,   0.00000001,   0.00000000,  -0.00000002,   0.00000001,  -0.00000028,  -0.00000021,   0.00000052,  -0.00000000,  -0.00000020,  -0.00000000
 12.67083300,  -0.00000040,  -0.00000024,   0.00000001,   0.00000000,  -0.00000002,   0.00000001,  -0.00000029,  -0.00000021,   0.00000051,  -0.00000000,  -0.00000020,  -0.00000000
 12.80400000,  -0.00000040,  -0.00000024,   0.00000001,   0.00000000,  -0.00000002,   0.00000001,  -0.00000029,  -0.00000021,   0.00000051,  -0.00000000,  -0.00000020,  -0.00000000
 12.93716700,  -0.00000040,  -0.00000024,   0.00000001,   0.00000000,  -0.00000002,   0.00000001,  -0.00000029,  -0.00000020,   0.00000051,  -0.00000000,  -0.00000019,  -0.00000000
 13.07033300,  -0.00000040,  -0.00000024,   0.00000001,   0.00000000,  -0.00000002,   0.00000001,  -0.00000029,  -0.00000020,   0.00000051,  -0.00000000,  -0.00000019,  -0.00000000
 13.20350000,  -0.00000040,  -0.00000024,   0.00000001,   0.00000000,  -0.00000002,   0.00000001,  -0.00000029,  -0.00000020,   0.00000051,  -0.00000000,  -0.00000019,  -0.00000000
 13.33666700,  -0.00000040,  -0.00000024,   0.00000001,   0.00000000,  -0.00000002,   0.00000001,  -0.00000029,  -0.00000020,   0.00000050,  -0.00000000,  -0.00000019,  -0.00000000
 13.46983300,  -0.00000040,  -0.00000024,   0.00000001,   0.00000000,  -0.00000002,   0.00000001,  -0.00000029,  -0.00000019,   0.00000050,  -0.00000000,  -0.00000018,  -0.00000000
 13.60300000,  -0.00000040,  -0.00000024,   0.00000001,   0.00000000,  -0.00000002,   0.00000001,  -0.00000029,  -0.00000019,   0.00000050,  -0.00000000,  -0.00000018,  -0.00000000
 13.73616700,  -0.00000040,  -0.00000024,   0.00000001,   0.00000000,  -0.00000002,   0.00000001,  -0.00000029,  -0.00000019,   0.00000050,  -0.00000000,  -0.00000018,  -0.00000000
 13.86933300,  -0.00000040,  -0.00000024,   0.00000002,   0.00000000,  -0.00000002,   0.00000001,  -0.00000029,  -0.00000019,   0.00000050,  -0.00000000,  -0.00000018,  -0.00000000
 14.00250000,  -0.00000040,  -0.00000024,   0.00000000,   0.00000000,  -0.00000002,   0.00000001,  -0.00000029,  -0.00000018,   0.00000050,  -0.00000000,  -0.00000017,  -0.00000000
 14.13566700,  -0.00000040,  -0.00000024,   0.00000001,   0.00000000,  -0.00000002,   0.00000001,  -0.00000029,  -0.00000018,   0.00000049,  -0.00000000,  -0.00000017,  -0.00000000
 14.26883300,  -0.00000040,  -0.00000024,   0.00000001,   0.00000000,  -0.00000002,   0.00000001,  -0.00000029,  -0.00000018,   0.00000049,  -0.00000000,  -0.00000017,  -0.00000000
 14.40200000,  -0.00000040,  -0.00000024,   0.00000001,   0.00000000,  -0.00000002,   0.00000001,  -0.00000029,  -0.00000018,   0.00000049,  -0.00000000,  -0.00000017,  -0.00000000
 14.53516700,  -0.00000040,  -0.00000024,   0.00000001,   0.00000000,  -0.00000002,   0.00000001,  -0.00000030,  -0.00000018,   0.00000049,  -0.00000000,  -0.00000017,  -0.00000000
 14.66833300,  -0.00000040,  -0.00000024,   0.00000001,   0.00000000,  -0.00000002,   0.00000001,  -0.00000030,  -0.00000017,   0.00000049,  -0.00000000,  -0.00000016,  -0.00000000
 14.80150000,  -0.00000040,  -0.00000024,   0.00000000,   0.00000000,  -0.00000002,   0.00000001,  -0.00000030,  -0.00000017,   0.00000049,  -0.00000000,  -0.00000016,  -0.00000000
 14.93466700,  -0.00000040,  -0.00000024,   0.00000001,   0.00000000,  -0.00000002,   0.00000001,  -0.00000030,  -0.00000017,   0.00000048,  -0.00000000,  -0.00000016,  -0.00000000
 15.06783300,  -0.00000040,  -0.00000024,   0.00000001,   0.00000000,  -0.00000002,   0.00000001,  -0.00000030,  -0.00000017,   0.00000048,  -0.00000000,  -0.00000016,  -0.00000000
 15.20100000,  -0.00000040,  -0.00000024,   0.00000001,   0.00000000,  -0.00000002,   0.00000001,  -0.00000030,  -0.00000017,   0.00000048,  -0.00000000,  -0.00000016,  -0.00000000
 15.33416700,  -0.00000040,  -0.00000024,   0.00000001,   0.00000000,  -0.00000002,   0.00000001,  -0.00000030,  -0.00000017,   0.00000048,  -0.00000000,  -0.00000016,  -0.00000000
 15.46733300,  -0.00000040,  -0.00000024,   0.00000001,   0.00000000,  -0.00000002,   0.00000001,  -0.00000030,  -0.00000016,   0.00000048,  -0.00000000,  -0.00000015,  -0.00000000
 15.60050000,  -0.00000040,  -0.00000024,   0.00000002,   0.00000000,  -0.00000002,   0.00000001,  -0.00000030,  -0.00000016,   0.00000048,  -0.00000000,  -0.00000015,  -0.00000000
 15.73366700,  -0.00000040,  -0.00000024,   0.00000001,   0.00000000,  -0.00000002,   0.00000001,  -0.00000030,  -0.00000016,   0.00000047,  -0.00000000,  -0.00000015,  -0.00000000
 15.86683300,  -0.00000040,  -0.00000024,   0.00000001,   0.00000000,  -0.00000002,   0.00000001,  -0.00000030,  -0.00000016,   0.00000047,  -0.00000000,  -0.00000015,  -0.00000000
 16.00000000,  -0.00000040,  -0.00000024,   0.00000001,   0.00000000,  -0.00000002,   0.00000001,  -0.00000030,  -0.00000016,   0.00000047,  -0.00000000,  -0.00000015,  -0.00000000
