Time (m)    , Stress_xx (MPa), Stress_yy (MPa), Stress_zz (MPa), Stress_xy (MPa), Stress_xz (MPa), Stress_yz (MPa), Strain_xx   , Strain_yy   , Strain_zz   , Strain_xy   , Strain_xz   , Strain_yz   
 0.000000000,  0.000000000,  0.000000000,  0.000000000,  0.000000000,  0.000000000,  0.000000000,  0.000000000,  0.000000000,  0.000000000,  0.000000000,  0.000000000,  0.000000000
 0.000500000,  0.049999946, -0.000000024, -0.000000117,  0.000000000, -0.000000003,  0.000000000,  0.000011170, -0.000004363, -0.000000857,  0.000000184,  0.000000077,  0.000000000
 0.001000000,  0.099999773, -0.000000114, -0.000001011, -0.000000004, -0.000000010,  0.000000000,  0.000023126, -0.000009306, -0.000001751,  0.000000384,  0.000000157,  0.000000003
 0.001500000,  0.149999181, -0.000000547, -0.000000843, -0.000000017, -0.000000003,  0.000000000,  0.000035229, -0.000014379, -0.000002647,  0.000000583,  0.000000240,  0.000000003
 0.002000000,  0.199998487, -0.000001033, -0.000004257, -0.000000033, -0.000000033,  0.000000001,  0.000047403, -0.000019513, -0.000003546,  0.000000784,  0.000000323,  0.000000006
 0.002500000,  0.249997687, -0.000001843, -0.000002611, -0.000000051, -0.000000006, -0.000000001,  0.000059604, -0.000024677, -0.000004443,  0.000000989,  0.000000407,  0.000000009
 0.003000000,  0.299996354, -0.000002204, -0.000003561, -0.000000064, -0.000000003, -0.000000003,  0.000071821, -0.000029859, -0.000005343,  0.000001189,  0.000000489,  0.000000010
 0.003500000,  0.349995929, -0.000002443,  0.000002211, -0.000000071,  0.000000076,  0.000000000,  0.000084050, -0.000035049, -0.000006240,  0.000001389,  0.000000574,  0.000000010
 0.004000000,  0.399996547, -0.000001786, -0.000000170, -0.000000061,  0.000000031,  0.000000000,  0.000096284, -0.000040244, -0.000007139,  0.000001591,  0.000000654,  0.000000011
 0.004500000,  0.450000811, -0.000006504,  0.000016211, -0.000000044,  0.000000289,  0.000000001,  0.000108520, -0.000045443, -0.000008039,  0.000001794,  0.000000740,  0.000000011
 0.005000000,  0.500000176, -0.000003484,  0.000004709, -0.000000033,  0.000000104, -0.000000001,  0.000120761, -0.000050643, -0.000008936,  0.000001997,  0.000000820,  0.000000016
 0.005500000,  0.549999140, -0.000000789,  0.000003284, -0.000000021,  0.000000057, -0.000000001,  0.000133006, -0.000055847, -0.000009837,  0.000002199,  0.000000903,  0.000000016
 0.006000000,  0.600003936, -0.000003367, -0.000023249, -0.000000001, -0.000000297,  0.000000000,  0.000145251, -0.000061050, -0.000010733,  0.000002400,  0.000000986,  0.000000019
 0.006500000,  0.650002559, -0.000001873, -0.000016093,  0.000000004, -0.000000197, -0.000000004,  0.000157497, -0.000066261, -0.000011634,  0.000002604,  0.000001070,  0.000000019
 0.007000000,  0.700000733, -0.000000287, -0.000008116,  0.000000001, -0.000000107,  0.000000001,  0.000169747, -0.000071470, -0.000012530,  0.000002806,  0.000001153,  0.000000021
 0.007500000,  0.750001746, -0.000002633,  0.000004583,  0.000000000,  0.000000101,  0.000000003,  0.000181997, -0.000076681, -0.000013429,  0.000003010,  0.000001237,  0.000000023
 0.008000000,  0.800000529, -0.000001786,  0.000006159, -0.000000007,  0.000000113,  0.000000001,  0.000194251, -0.000081896, -0.000014329,  0.000003209,  0.000001317,  0.000000023
 0.008500000,  0.849999694, -0.000001226,  0.000006764, -0.000000016,  0.000000117,  0.000000000,  0.000206504, -0.000087111, -0.000015227,  0.000003411,  0.000001403,  0.000000026
 0.009000000,  0.900002704, -0.000002960, -0.000022117, -0.000000011, -0.000000269,  0.000000007,  0.000218763, -0.000092329, -0.000016129,  0.000003613,  0.000001483,  0.000000029
 0.009500000,  0.950000570, -0.000001537, -0.000012624, -0.000000017, -0.000000146,  0.000000001,  0.000231021, -0.000097547, -0.000017027,  0.000003817,  0.000001569,  0.000000029
 0.010000000,  1.000000249, -0.000001290, -0.000012473, -0.000000021, -0.000000150,  0.000000001,  0.000243281, -0.000102767, -0.000017929,  0.000004020,  0.000001651,  0.000000029
 0.076583330,  1.000012757,  0.000007520, -0.000022757,  0.000000240, -0.000000434, -0.000000021,  0.000247730, -0.000106187, -0.000018337,  0.000004091,  0.000001717,  0.000000029
 0.143166670,  1.000004573,  0.000001114, -0.000027870,  0.000000031, -0.000000400, -0.000000007,  0.000249250, -0.000107054, -0.000018664,  0.000004117,  0.000001769,  0.000000029
 0.209750000,  1.000006663,  0.000003553, -0.000008579,  0.000000086, -0.000000189,  0.000000001,  0.000250407, -0.000107639, -0.000018949,  0.000004140,  0.000001813,  0.000000029
 0.276333330,  1.000007929,  0.000003753, -0.000000143,  0.000000153,  0.000000061,  0.000000003,  0.000251361, -0.000108104, -0.000019193,  0.000004161,  0.000001853,  0.000000029
 0.342916670,  1.000011914,  0.000007686,  0.000003623,  0.000000229, -0.000000020,  0.000000001,  0.000252193, -0.000108509, -0.000019403,  0.000004179,  0.000001886,  0.000000030
 0.409500000,  1.000013386,  0.000009107,  0.000002987,  0.000000246, -0.000000106, -0.000000001,  0.000252920, -0.000108876, -0.000019579,  0.000004191,  0.000001914,  0.000000030
 0.476083330,  1.000012871,  0.000008603, -0.000001876,  0.000000219, -0.000000010,  0.000000004,  0.000253570, -0.000109220, -0.000019730,  0.000004204,  0.000001939,  0.000000030
 0.542666670,  1.000010786,  0.000006980, -0.000003906,  0.000000183, -0.000000004, -0.000000001,  0.000254157, -0.000109540, -0.000019856,  0.000004216,  0.000001959,  0.000000030
 0.609250000,  1.000020786,  0.000002586, -0.000013654,  0.000000207,  0.000000869, -0.000000001,  0.000254693, -0.000109846, -0.000019966,  0.000004226,  0.000001980,  0.000000030
 0.675833330,  1.000014771,  0.000005304, -0.000011164,  0.000000199,  0.000000350,  0.000000004,  0.000255173, -0.000110134, -0.000020057,  0.000004236,  0.000001993,  0.000000030
 0.742416670,  1.000015914,  0.000004267, -0.000010913,  0.000000191,  0.000000416,  0.000000009,  0.000255624, -0.000110407, -0.000020136,  0.000004244,  0.000002009,  0.000000029
 0.809000000,  1.000017000,  0.000003933, -0.000013887,  0.000000210,  0.000000443, -0.000000001,  0.000256037, -0.000110671, -0.000020204,  0.000004251,  0.000002020,  0.000000029
 0.875583330,  1.000018400,  0.000003796, -0.000016974,  0.000000227,  0.000000561, -0.000000001,  0.000256420, -0.000110924, -0.000020257,  0.000004257,  0.000002031,  0.000000029
 0.942166670,  1.000017057,  0.000005563, -0.000015656,  0.000000236,  0.000000330,  0.000000004,  0.000256777, -0.000111166, -0.000020306,  0.000004266,  0.000002040,  0.000000029
 1.008750000,  1.000016786,  0.000005744, -0.000011937,  0.000000236,  0.000000261, -0.000000001,  0.000257114, -0.000111401, -0.000020349,  0.000004271,  0.000002050,  0.000000029
 1.075333300,  1.000013614,  0.000005901, -0.000011129,  0.000000191,  0.000000021,  0.000000001,  0.000257429, -0.000111629, -0.000020384,  0.000004277,  0.000002059,  0.000000029
 1.141916700,  1.000012100,  0.000004180, -0.000011149,  0.000000143,  0.000000049,  0.000000001,  0.000257727, -0.000111847, -0.000020414,  0.000004281,  0.000002060,  0.000000029
 1.208500000,  1.000009214,  0.000003031, -0.000009450,  0.000000107,  0.000000007, -0.000000001,  0.000258007, -0.000112064, -0.000020437,  0.000004287,  0.000002069,  0.000000029
 1.275083300,  1.000008629,  0.000001090, -0.000014534,  0.000000083,  0.000000079,  0.000000003,  0.000258281, -0.000112273, -0.000020461,  0.000004291,  0.000002073,  0.000000029
 1.341666700,  1.000006029,  0.000000713, -0.000010723,  0.000000061,  0.000000014, -0.000000001,  0.000258539, -0.000112479, -0.000020480,  0.000004294,  0.000002079,  0.000000029
 1.408250000,  1.000004887,  0.000000260, -0.000010577,  0.000000047, -0.000000053,  0.000000003,  0.000258787, -0.000112674, -0.000020496,  0.000004299,  0.000002081,  0.000000029
 1.474833300,  1.000004347,  0.000000150, -0.000012160,  0.000000040, -0.000000089,  0.000000001,  0.000259027, -0.000112870, -0.000020509,  0.000004303,  0.000002087,  0.000000029
 1.541416700,  1.000003820,  0.000000180, -0.000010887,  0.000000039, -0.000000099,  0.000000000,  0.000259261, -0.000113059, -0.000020521,  0.000004307,  0.000002090,  0.000000029
 1.608000000,  1.000002611,  0.000000936,  0.000002364,  0.000000034,  0.000000046,  0.000000000,  0.000259487, -0.000113243, -0.000020530,  0.000004309,  0.000002091,  0.000000029
 1.674583300,  1.000003554,  0.000000554, -0.000011077,  0.000000036, -0.000000154,  0.000000001,  0.000259706, -0.000113427, -0.000020541,  0.000004314,  0.000002094,  0.000000029
 1.741166700,  1.000001189,  0.000001599,  0.000016150,  0.000000027,  0.000000183, -0.000000001,  0.000259916, -0.000113606, -0.000020544,  0.000004319,  0.000002100,  0.000000029
 1.807750000,  1.000001131,  0.000001687,  0.000017323,  0.000000031,  0.000000163, -0.000000003,  0.000260127, -0.000113777, -0.000020553,  0.000004319,  0.000002100,  0.000000030
 1.874333300,  1.000001834,  0.000001791,  0.000003699,  0.000000041, -0.000000027, -0.000000003,  0.000260327, -0.000113950, -0.000020560,  0.000004324,  0.000002100,  0.000000030
 1.940916700,  1.000003457,  0.000000254, -0.000009290,  0.000000034, -0.000000111,  0.000000000,  0.000260524, -0.000114120, -0.000020564,  0.000004329,  0.000002104,  0.000000030
 2.007500000,  1.000001474,  0.000001803, -0.000001576,  0.000000024, -0.000000083,  0.000000001,  0.000260719, -0.000114283, -0.000020570,  0.000004331,  0.000002107,  0.000000030
 2.074083300,  1.000001360,  0.000001350,  0.000001649,  0.000000020, -0.000000031,  0.000000000,  0.000260909, -0.000114444, -0.000020574,  0.000004333,  0.000002109,  0.000000030
 2.140666700,  1.000002431,  0.000000504, -0.000014279,  0.000000016, -0.000000207,  0.000000001,  0.000261093, -0.000114606, -0.000020576,  0.000004336,  0.000002110,  0.000000030
 2.207250000,  1.000000034,  0.000000941,  0.000017819,  0.000000011,  0.000000223, -0.000000003,  0.000261274, -0.000114763, -0.000020580,  0.000004337,  0.000002110,  0.000000030
 2.273833300,  1.000001637,  0.000000366, -0.000009351,  0.000000009, -0.000000150,  0.000000001,  0.000261454, -0.000114917, -0.000020584,  0.000004341,  0.000002116,  0.000000030
 2.340416700,  1.000001326,  0.000000207, -0.000006693,  0.000000006, -0.000000094,  0.000000001,  0.000261630, -0.000115069, -0.000020584,  0.000004344,  0.000002117,  0.000000030
 2.407000000,  1.000000873,  0.000000711, -0.000010416,  0.000000003, -0.000000181,  0.000000001,  0.000261801, -0.000115217, -0.000020591,  0.000004346,  0.000002117,  0.000000030
 2.473583300,  1.000001029,  0.000000620, -0.000014076,  0.000000001, -0.000000241,  0.000000001,  0.000261970, -0.000115366, -0.000020591,  0.000004349,  0.000002117,  0.000000030
 2.540166700,  1.000000627,  0.000000156, -0.000000207,  0.000000000, -0.000000011,  0.000000003,  0.000262136, -0.000115510, -0.000020594,  0.000004351,  0.000002120,  0.000000030
 2.606750000,  1.000000549,  0.000000061,  0.000002387,  0.000000001,  0.000000030,  0.000000001,  0.000262299, -0.000115653, -0.000020594,  0.000004357,  0.000002120,  0.000000030
 2.673333300,  1.000000969,  0.000000376, -0.000011071,  0.000000000, -0.000000171, -0.000000001,  0.000262457, -0.000115791, -0.000020599,  0.000004359,  0.000002121,  0.000000030
 2.739916700,  1.000001779, -0.000000287, -0.000017079,  0.000000004, -0.000000229,  0.000000003,  0.000262617, -0.000115930, -0.000020601,  0.000004360,  0.000002124,  0.000000030
 2.806500000,  1.000000794,  0.000000127, -0.000008581,  0.000000000, -0.000000117,  0.000000000,  0.000262773, -0.000116063, -0.000020603,  0.000004360,  0.000002127,  0.000000030
 2.873083300,  1.000000424, -0.000000077,  0.000001353,  0.000000000,  0.000000014, -0.000000001,  0.000262926, -0.000116197, -0.000020603,  0.000004364,  0.000002127,  0.000000030
 2.939666700,  0.999999960,  0.000000453, -0.000000621, -0.000000003, -0.000000019,  0.000000001,  0.000263076, -0.000116330, -0.000020604,  0.000004367,  0.000002129,  0.000000030
 3.006250000,  1.000001500, -0.000000819, -0.000009649, -0.000000001, -0.000000119,  0.000000003,  0.000263224, -0.000116459, -0.000020607,  0.000004367,  0.000002129,  0.000000030
 3.072833300,  1.000000296,  0.000000377, -0.000009750, -0.000000006, -0.000000137,  0.000000000,  0.000263369, -0.000116581, -0.000020610,  0.000004371,  0.000002129,  0.000000031
 3.139416700,  0.999999389,  0.000000993, -0.000002561, -0.000000009, -0.000000050,  0.000000004,  0.000263513, -0.000116709, -0.000020611,  0.000004374,  0.000002130,  0.000000031
 3.206000000,  1.000001204,  0.000000101, -0.000021177, -0.000000004, -0.000000301,  0.000000003,  0.000263654, -0.000116829, -0.000020614,  0.000004376,  0.000002131,  0.000000031
 3.272583300,  0.999999874,  0.000000349,  0.000000156, -0.000000009,  0.000000024,  0.000000003,  0.000263793, -0.000116951, -0.000020613,  0.000004379,  0.000002134,  0.000000031
 3.339166700,  1.000000534, -0.000000007, -0.000006543, -0.000000006, -0.000000089,  0.000000000,  0.000263930, -0.000117070, -0.000020616,  0.000004381,  0.000002136,  0.000000031
 3.405750000,  1.000001341, -0.000000299, -0.000018340, -0.000000006, -0.000000251,  0.000000003,  0.000264066, -0.000117189, -0.000020619,  0.000004383,  0.000002137,  0.000000031
 3.472333300,  1.000000294,  0.000001311, -0.000027069, -0.000000009, -0.000000409,  0.000000001,  0.000264199, -0.000117303, -0.000020621,  0.000004384,  0.000002137,  0.000000031
 3.538916700,  1.000001141, -0.000000213, -0.000017167, -0.000000006, -0.000000236, -0.000000001,  0.000264329, -0.000117416, -0.000020624,  0.000004386,  0.000002139,  0.000000031
 3.605500000,  1.000000921,  0.000000994, -0.000034723, -0.000000007, -0.000000509,  0.000000000,  0.000264459, -0.000117527, -0.000020626,  0.000004386,  0.000002139,  0.000000031
 3.672083300,  1.000000906,  0.000000576, -0.000027526, -0.000000009, -0.000000400,  0.000000003,  0.000264584, -0.000117637, -0.000020626,  0.000004389,  0.000002139,  0.000000031
 3.738666700,  0.999999860, -0.000000024,  0.000003281, -0.000000007,  0.000000063, -0.000000001,  0.000264710, -0.000117746, -0.000020626,  0.000004393,  0.000002140,  0.000000031
 3.805250000,  1.000001524, -0.000001166, -0.000009124, -0.000000004, -0.000000100,  0.000000000,  0.000264834, -0.000117856, -0.000020630,  0.000004396,  0.000002144,  0.000000031
 3.871833300,  1.000000884, -0.000000910, -0.000003790, -0.000000009, -0.000000021,  0.000000004,  0.000264956, -0.000117960, -0.000020631,  0.000004397,  0.000002146,  0.000000031
 3.938416700,  1.000000754, -0.000000200, -0.000015183, -0.000000013, -0.000000197,  0.000000003,  0.000265074, -0.000118064, -0.000020634,  0.000004397,  0.000002146,  0.000000031
 4.005000000,  1.000000546,  0.000000207, -0.000019269, -0.000000013, -0.000000266,  0.000000003,  0.000265193, -0.000118166, -0.000020634,  0.000004400,  0.000002147,  0.000000031
 4.071583300,  1.000001017, -0.000000609, -0.000014144, -0.000000010, -0.000000184,  0.000000000,  0.000265311, -0.000118266, -0.000020637,  0.000004401,  0.000002147,  0.000000031
 4.138166700,  1.000000931, -0.000000193, -0.000020896, -0.000000011, -0.000000287,  0.000000003,  0.000265424, -0.000118366, -0.000020641,  0.000004403,  0.000002147,  0.000000031
 4.204750000,  0.999999510,  0.000000361, -0.000003363, -0.000000013, -0.000000046,  0.000000001,  0.000265537, -0.000118463, -0.000020641,  0.000004407,  0.000002147,  0.000000031
 4.271333300,  1.000001033, -0.000000366, -0.000019099, -0.000000010, -0.000000263,  0.000000003,  0.000265650, -0.000118559, -0.000020644,  0.000004407,  0.000002149,  0.000000031
 4.337916700,  1.000000670,  0.000000344, -0.000024451, -0.000000011, -0.000000340,  0.000000006,  0.000265759, -0.000118653, -0.000020646,  0.000004409,  0.000002149,  0.000000031
 4.404500000,  1.000000371, -0.000000299, -0.000007210, -0.000000011, -0.000000091,  0.000000000,  0.000265867, -0.000118746, -0.000020646,  0.000004409,  0.000002150,  0.000000031
 4.471083300,  1.000001401, -0.000000907, -0.000017281, -0.000000010, -0.000000227,  0.000000001,  0.000265974, -0.000118840, -0.000020651,  0.000004411,  0.000002154,  0.000000031
 4.537666700,  0.999999916, -0.000000611,  0.000004977, -0.000000010,  0.000000096,  0.000000000,  0.000266080, -0.000118931, -0.000020651,  0.000004411,  0.000002154,  0.000000031
 4.604250000,  1.000000321, -0.000000434, -0.000006394, -0.000000011, -0.000000077,  0.000000001,  0.000266184, -0.000119017, -0.000020654,  0.000004417,  0.000002156,  0.000000031
 4.670833300,  1.000000820, -0.000000347, -0.000018421, -0.000000011, -0.000000243,  0.000000003,  0.000266289, -0.000119104, -0.000020654,  0.000004417,  0.000002156,  0.000000031
 4.737416700,  1.000000100, -0.000000530, -0.000002021, -0.000000011, -0.000000011,  0.000000001,  0.000266387, -0.000119190, -0.000020657,  0.000004417,  0.000002159,  0.000000031
 4.804000000,  0.999999987, -0.000000263, -0.000004967, -0.000000011, -0.000000057,  0.000000000,  0.000266487, -0.000119277, -0.000020659,  0.000004421,  0.000002159,  0.000000031
 4.870583300,  1.000000843, -0.000000183, -0.000022661, -0.000000011, -0.000000311,  0.000000000,  0.000266584, -0.000119361, -0.000020663,  0.000004423,  0.000002159,  0.000000031
 4.937166700,  1.000000827, -0.000000253, -0.000020510, -0.000000010, -0.000000277,  0.000000001,  0.000266683, -0.000119443, -0.000020664,  0.000004423,  0.000002159,  0.000000031
 5.003750000,  1.000000944, -0.000001084, -0.000009466, -0.000000010, -0.000000111,  0.000000001,  0.000266777, -0.000119523, -0.000020664,  0.000004424,  0.000002159,  0.000000031
 5.070333300,  1.000000429,  0.000000154, -0.000022369, -0.000000014, -0.000000304,  0.000000000,  0.000266870, -0.000119603, -0.000020669,  0.000004429,  0.000002159,  0.000000031
 5.136916700,  1.000000760, -0.000001036, -0.000008216, -0.000000010, -0.000000094,  0.000000001,  0.000266966, -0.000119683, -0.000020670,  0.000004429,  0.000002159,  0.000000031
 5.203500000,  1.000000671,  0.000000223, -0.000028886, -0.000000011, -0.000000410, -0.000000001,  0.000267057, -0.000119760, -0.000020673,  0.000004429,  0.000002163,  0.000000031
 5.270083300,  0.999999759, -0.000000801,  0.000006864, -0.000000013,  0.000000110, -0.000000001,  0.000267144, -0.000119839, -0.000020674,  0.000004431,  0.000002163,  0.000000031
 5.336666700,  1.000000530, -0.000000606, -0.000010607, -0.000000011, -0.000000136, -0.000000001,  0.000267234, -0.000119914, -0.000020677,  0.000004431,  0.000002166,  0.000000031
 5.403250000,  1.000001353, -0.000001114, -0.000017569, -0.000000011, -0.000000224,  0.000000001,  0.000267323, -0.000119987, -0.000020680,  0.000004433,  0.000002167,  0.000000031
 5.469833300,  1.000000581, -0.000001110, -0.000004841, -0.000000013, -0.000000041,  0.000000001,  0.000267409, -0.000120059, -0.000020681,  0.000004437,  0.000002167,  0.000000031
 5.536416700,  1.000000916,  0.000000246, -0.000035006, -0.000000014, -0.000000491,  0.000000004,  0.000267499, -0.000120131, -0.000020684,  0.000004437,  0.000002167,  0.000000031
 5.603000000,  1.000000767, -0.000000711, -0.000015503, -0.000000014, -0.000000207,  0.000000003,  0.000267577, -0.000120204, -0.000020684,  0.000004439,  0.000002169,  0.000000031
 5.669583300,  1.000000533, -0.000000701, -0.000011934, -0.000000014, -0.000000146,  0.000000003,  0.000267663, -0.000120274, -0.000020687,  0.000004440,  0.000002169,  0.000000031
 5.736166700,  0.999999801, -0.000000563, -0.000000329, -0.000000013,  0.000000014,  0.000000000,  0.000267744, -0.000120343, -0.000020690,  0.000004443,  0.000002169,  0.000000031
 5.802750000,  1.000000239, -0.000000741, -0.000005390, -0.000000016, -0.000000059, -0.000000001,  0.000267824, -0.000120411, -0.000020691,  0.000004443,  0.000002169,  0.000000031
 5.869333300,  1.000000404, -0.000000714, -0.000009167, -0.000000011, -0.000000111, -0.000000001,  0.000267904, -0.000120480, -0.000020694,  0.000004443,  0.000002169,  0.000000030
 5.935916700,  1.000000694, -0.000000811, -0.000013887, -0.000000011, -0.000000180,  0.000000001,  0.000267984, -0.000120544, -0.000020696,  0.000004443,  0.000002170,  0.000000029
 6.002500000,  1.000000357, -0.000000084, -0.000020443, -0.000000013, -0.000000276,  0.000000003,  0.000268064, -0.000120610, -0.000020699,  0.000004447,  0.000002174,  0.000000029
 6.069083300,  1.000000644, -0.000000784, -0.000013289, -0.000000010, -0.000000170,  0.000000003,  0.000268140, -0.000120674, -0.000020703,  0.000004447,  0.000002174,  0.000000029
 6.135666700,  1.000000534, -0.000000729, -0.000013187, -0.000000013, -0.000000169,  0.000000003,  0.000268217, -0.000120739, -0.000020704,  0.000004447,  0.000002174,  0.000000029
 6.202250000,  0.999999961, -0.000000497, -0.000006240, -0.000000014, -0.000000074,  0.000000000,  0.000268290, -0.000120800, -0.000020706,  0.000004449,  0.000002174,  0.000000029
 6.268833300,  0.999999269, -0.000000901,  0.000014173, -0.000000014,  0.000000227,  0.000000001,  0.000268364, -0.000120864, -0.000020706,  0.000004451,  0.000002176,  0.000000029
 6.335416700,  0.999999723, -0.000000926,  0.000006263, -0.000000011,  0.000000114, -0.000000001,  0.000268439, -0.000120924, -0.000020710,  0.000004453,  0.000002177,  0.000000029
 6.402000000,  1.000000720, -0.000000524, -0.000020049, -0.000000017, -0.000000279,  0.000000001,  0.000268510, -0.000120984, -0.000020714,  0.000004453,  0.000002177,  0.000000029
 6.468583300,  1.000000926, -0.000000844, -0.000019133, -0.000000013, -0.000000259, -0.000000003,  0.000268581, -0.000121043, -0.000020716,  0.000004453,  0.000002177,  0.000000029
 6.535166700,  1.000000769, -0.000000676, -0.000019970, -0.000000013, -0.000000266,  0.000000000,  0.000268653, -0.000121100, -0.000020717,  0.000004453,  0.000002179,  0.000000029
 6.601750000,  1.000000769, -0.000000824, -0.000017703, -0.000000014, -0.000000236,  0.000000001,  0.000268721, -0.000121157, -0.000020721,  0.000004454,  0.000002180,  0.000000029
 6.668333300,  1.000000483, -0.000000779, -0.000014029, -0.000000016, -0.000000181,  0.000000000,  0.000268787, -0.000121214, -0.000020724,  0.000004459,  0.000002180,  0.000000029
 6.734916700,  1.000000207, -0.000000697, -0.000010293, -0.000000014, -0.000000127,  0.000000000,  0.000268857, -0.000121270, -0.000020724,  0.000004460,  0.000002180,  0.000000029
 6.801500000,  0.999999599, -0.000000794,  0.000003689, -0.000000016,  0.000000076,  0.000000001,  0.000268923, -0.000121326, -0.000020724,  0.000004460,  0.000002181,  0.000000029
 6.868083300,  1.000000001, -0.000000479, -0.000009476, -0.000000019, -0.000000127,  0.000000000,  0.000268989, -0.000121379, -0.000020730,  0.000004463,  0.000002184,  0.000000029
 6.934666700,  1.000000867, -0.000000747, -0.000020717, -0.000000014, -0.000000281, -0.000000003,  0.000269054, -0.000121433, -0.000020734,  0.000004463,  0.000002184,  0.000000029
 7.001250000,  1.000000616, -0.000000861, -0.000014000, -0.000000013, -0.000000181,  0.000000000,  0.000269119, -0.000121487, -0.000020736,  0.000004463,  0.000002184,  0.000000029
 7.067833300,  1.000000729, -0.000000901, -0.000016521, -0.000000014, -0.000000216,  0.000000000,  0.000269181, -0.000121537, -0.000020736,  0.000004464,  0.000002184,  0.000000029
 7.134416700,  1.000000406, -0.000000237, -0.000021969, -0.000000014, -0.000000300,  0.000000001,  0.000269243, -0.000121587, -0.000020740,  0.000004466,  0.000002184,  0.000000029
 7.201000000,  1.000000401, -0.000000354, -0.000019926, -0.000000014, -0.000000271,  0.000000000,  0.000269307, -0.000121639, -0.000020743,  0.000004467,  0.000002186,  0.000000029
 7.267583300,  1.000000696, -0.000001226, -0.000010067, -0.000000013, -0.000000121, -0.000000003,  0.000269369, -0.000121690, -0.000020744,  0.000004467,  0.000002187,  0.000000029
 7.334166700,  1.000000366, -0.000000911, -0.000010324, -0.000000017, -0.000000127,  0.000000000,  0.000269429, -0.000121737, -0.000020746,  0.000004469,  0.000002189,  0.000000029
 7.400750000,  1.000000551, -0.000000706, -0.000018387, -0.000000016, -0.000000246,  0.000000001,  0.000269489, -0.000121786, -0.000020751,  0.000004469,  0.000002189,  0.000000029
 7.467333300,  1.000000560, -0.000000799, -0.000017121, -0.000000016, -0.000000221,  0.000000001,  0.000269547, -0.000121836, -0.000020751,  0.000004469,  0.000002189,  0.000000029
 7.533916700,  1.000000503, -0.000000236, -0.000025956, -0.000000016, -0.000000363, -0.000000001,  0.000269606, -0.000121884, -0.000020756,  0.000004473,  0.000002190,  0.000000029
 7.600500000,  1.000000359, -0.000001037, -0.000008927, -0.000000016, -0.000000106,  0.000000000,  0.000269663, -0.000121931, -0.000020756,  0.000004473,  0.000002190,  0.000000029
 7.667083300,  1.000000380, -0.000001009, -0.000009859, -0.000000017, -0.000000117,  0.000000000,  0.000269719, -0.000121974, -0.000020761,  0.000004474,  0.000002191,  0.000000029
 7.733666700,  1.000000346, -0.000000581, -0.000016727, -0.000000016, -0.000000223,  0.000000001,  0.000269777, -0.000122023, -0.000020761,  0.000004474,  0.000002194,  0.000000029
 7.800250000,  0.999999986, -0.000000991, -0.000002500, -0.000000016, -0.000000016,  0.000000000,  0.000269830, -0.000122064, -0.000020764,  0.000004473,  0.000002194,  0.000000029
 7.866833300,  0.999999770, -0.000001007,  0.000001927, -0.000000017,  0.000000049, -0.000000001,  0.000269884, -0.000122113, -0.000020766,  0.000004473,  0.000002194,  0.000000029
 7.933416700,  1.000000860, -0.000000546, -0.000026424, -0.000000016, -0.000000366,  0.000000001,  0.000269941, -0.000122153, -0.000020770,  0.000004476,  0.000002194,  0.000000029
 8.000000000,  1.000000767, -0.000000894, -0.000019020, -0.000000016, -0.000000250,  0.000000000,  0.000269993, -0.000122196, -0.000020771,  0.000004476,  0.000002194,  0.000000029
 8.000250000,  0.975007453,  0.000001456, -0.000022823,  0.000000084, -0.000000299, -0.000000004,  0.000264690, -0.000120197, -0.000020357,  0.000004390,  0.000002159,  0.000000029
 8.000500000,  0.950007236,  0.000003127, -0.000011473,  0.000000119, -0.000000179, -0.000000011,  0.000258870, -0.000117860, -0.000019917,  0.000004291,  0.000002120,  0.000000027
 8.000750000,  0.925009737,  0.000006810, -0.000020050,  0.000000184, -0.000000356, -0.000000007,  0.000252931, -0.000115423, -0.000019470,  0.000004194,  0.000002077,  0.000000027
 8.001000000,  0.900011081,  0.000003896, -0.000012990,  0.000000179, -0.000000201, -0.000000014,  0.000246924, -0.000112934, -0.000019023,  0.000004093,  0.000002039,  0.000000027
 8.001250000,  0.875010886,  0.000004426, -0.000011020,  0.000000151, -0.000000254,  0.000000007,  0.000240879, -0.000110404, -0.000018574,  0.000003996,  0.000001999,  0.000000027
 8.001500000,  0.850009986,  0.000003407, -0.000011454,  0.000000134, -0.000000240, -0.000000007,  0.000234809, -0.000107851, -0.000018124,  0.000003893,  0.000001954,  0.000000024
 8.001750000,  0.825007720,  0.000001430, -0.000022737,  0.000000081, -0.000000359,  0.000000003,  0.000228719, -0.000105284, -0.000017676,  0.000003793,  0.000001914,  0.000000023
 8.002000000,  0.800005659, -0.000000206, -0.000020364,  0.000000041, -0.000000306, -0.000000004,  0.000222620, -0.000102707, -0.000017229,  0.000003693,  0.000001871,  0.000000023
 8.002250000,  0.775003089, -0.000001357, -0.000021757,  0.000000004, -0.000000293,  0.000000001,  0.000216511, -0.000100124, -0.000016776,  0.000003591,  0.000001831,  0.000000021
 8.002500000,  0.749998099,  0.000000047, -0.000008547, -0.000000031, -0.000000104, -0.000000003,  0.000210400, -0.000097533, -0.000016329,  0.000003490,  0.000001789,  0.000000021
 8.002750000,  0.724998684,  0.000000863, -0.000040640, -0.000000051, -0.000000550,  0.000000007,  0.000204290, -0.000094940, -0.000015879,  0.000003386,  0.000001749,  0.000000020
 8.003000000,  0.699999333, -0.000002043, -0.000009380, -0.000000047, -0.000000100,  0.000000003,  0.000198177, -0.000092347, -0.000015429,  0.000003289,  0.000001709,  0.000000021
 8.003250000,  0.675000536, -0.000001761, -0.000022787, -0.000000031, -0.000000294,  0.000000000,  0.000192063, -0.000089753, -0.000014979,  0.000003186,  0.000001664,  0.000000020
 8.003500000,  0.650000457, -0.000001240, -0.000017556, -0.000000019, -0.000000226,  0.000000000,  0.000185949, -0.000087157, -0.000014531,  0.000003086,  0.000001624,  0.000000017
 8.003750000,  0.625000430, -0.000002066, -0.000017617, -0.000000021, -0.000000217,  0.000000000,  0.000179831, -0.000084559, -0.000014083,  0.000002986,  0.000001583,  0.000000019
 8.004000000,  0.599999959, -0.000001540, -0.000018844, -0.000000021, -0.000000239, -0.000000001,  0.000173716, -0.000081961, -0.000013633,  0.000002884,  0.000001543,  0.000000017
 8.004250000,  0.575000107, -0.000001263, -0.000020264, -0.000000023, -0.000000264, -0.000000003,  0.000167596, -0.000079361, -0.000013183,  0.000002784,  0.000001499,  0.000000017
 8.004500000,  0.550000880, -0.000000259, -0.000027574, -0.000000009, -0.000000374,  0.000000000,  0.000161480, -0.000076763, -0.000012736,  0.000002681,  0.000001457,  0.000000016
 8.004750000,  0.525000840, -0.000000144, -0.000025521, -0.000000009, -0.000000346,  0.000000001,  0.000155360, -0.000074161, -0.000012286,  0.000002581,  0.000001414,  0.000000017
 8.005000000,  0.500000607, -0.000000951, -0.000021094, -0.000000016, -0.000000277,  0.000000001,  0.000149239, -0.000071564, -0.000011837,  0.000002481,  0.000001374,  0.000000016
 8.005250000,  0.475000380, -0.000001063, -0.000017773, -0.000000014, -0.000000231,  0.000000000,  0.000143117, -0.000068960, -0.000011387,  0.000002380,  0.000001333,  0.000000014
 8.005500000,  0.450000166, -0.000000966, -0.000019196, -0.000000016, -0.000000251,  0.000000001,  0.000136997, -0.000066361, -0.000010939,  0.000002279,  0.000001290,  0.000000013
 8.005750000,  0.424999967, -0.000001040, -0.000017529, -0.000000017, -0.000000226, -0.000000001,  0.000130876, -0.000063757, -0.000010487,  0.000002177,  0.000001250,  0.000000010
 8.006000000,  0.400000320, -0.000000953, -0.000018953, -0.000000016, -0.000000247,  0.000000001,  0.000124753, -0.000061153, -0.000010039,  0.000002076,  0.000001209,  0.000000011
 8.006250000,  0.375000266, -0.000001099, -0.000020246, -0.000000019, -0.000000263, -0.000000001,  0.000118631, -0.000058551, -0.000009590,  0.000001974,  0.000001166,  0.000000011
 8.006500000,  0.349999840, -0.000000994, -0.000015806, -0.000000020, -0.000000201,  0.000000000,  0.000112507, -0.000055947, -0.000009141,  0.000001873,  0.000001124,  0.000000010
 8.006750000,  0.325000106, -0.000001029, -0.000017939, -0.000000019, -0.000000233,  0.000000000,  0.000106387, -0.000053343, -0.000008690,  0.000001771,  0.000001084,  0.000000009
 8.007000000,  0.299999994, -0.000001003, -0.000016710, -0.000000019, -0.000000216,  0.000000001,  0.000100259, -0.000050739, -0.000008241,  0.000001670,  0.000001040,  0.000000007
 8.007250000,  0.275000221, -0.000000984, -0.000020240, -0.000000019, -0.000000264,  0.000000000,  0.000094137, -0.000048133, -0.000007791,  0.000001570,  0.000001000,  0.000000009
 8.007500000,  0.250000103, -0.000000897, -0.000019826, -0.000000017, -0.000000257,  0.000000000,  0.000088009, -0.000045526, -0.000007344,  0.000001469,  0.000000959,  0.000000007
 8.007750000,  0.225000254, -0.000000909, -0.000018387, -0.000000014, -0.000000240,  0.000000000,  0.000081883, -0.000042919, -0.000006894,  0.000001366,  0.000000919,  0.000000006
 8.008000000,  0.200000120, -0.000000910, -0.000018707, -0.000000016, -0.000000244,  0.000000000,  0.000075756, -0.000040313, -0.000006443,  0.000001266,  0.000000877,  0.000000004
 8.008250000,  0.175000153, -0.000000953, -0.000018877, -0.000000017, -0.000000246,  0.000000000,  0.000069630, -0.000037704, -0.000005994,  0.000001164,  0.000000833,  0.000000004
 8.008500000,  0.150000104, -0.000000900, -0.000018594, -0.000000016, -0.000000243,  0.000000000,  0.000063504, -0.000035100, -0.000005544,  0.000001066,  0.000000794,  0.000000004
 8.008750000,  0.125000093, -0.000000906, -0.000018920, -0.000000016, -0.000000249,  0.000000000,  0.000057376, -0.000032491, -0.000005097,  0.000000961,  0.000000751,  0.000000003
 8.009000000,  0.100000060, -0.000000907, -0.000018676, -0.000000016, -0.000000244,  0.000000001,  0.000051249, -0.000029881, -0.000004644,  0.000000861,  0.000000711,  0.000000004
 8.009250000,  0.075000039, -0.000000923, -0.000018317, -0.000000016, -0.000000237,  0.000000000,  0.000045120, -0.000027271, -0.000004196,  0.000000760,  0.000000666,  0.000000000
 8.009500000,  0.050000034, -0.000000899, -0.000018947, -0.000000016, -0.000000249,  0.000000000,  0.000038990, -0.000024663, -0.000003744,  0.000000659,  0.000000627,  0.000000001
 8.009750000,  0.025000011, -0.000000903, -0.000018860, -0.000000016, -0.000000247,  0.000000000,  0.000032859, -0.000022053, -0.000003296,  0.000000560,  0.000000584,  0.000000000
 8.010000000,  0.000000000, -0.000000894, -0.000019016, -0.000000016, -0.000000249,  0.000000000,  0.000026731, -0.000019444, -0.000002846,  0.000000454,  0.000000544, -0.000000001
 8.143166700,  0.000000001, -0.000000893, -0.000019073, -0.000000016, -0.000000250,  0.000000000,  0.000020970, -0.000015313, -0.000002127,  0.000000363,  0.000000430, -0.000000001
 8.276333300, -0.000000001, -0.000000894, -0.000018999, -0.000000016, -0.000000249,  0.000000000,  0.000019011, -0.000014336, -0.000001631,  0.000000324,  0.000000351,  0.000000000
 8.409500000, -0.000000001, -0.000000896, -0.000018994, -0.000000016, -0.000000249,  0.000000000,  0.000017570, -0.000013629, -0.000001266,  0.000000294,  0.000000294,  0.000000000
 8.542666700,  0.000000001, -0.000000894, -0.000019014, -0.000000016, -0.000000250,  0.000000000,  0.000016431, -0.000013041, -0.000000994,  0.000000273,  0.000000249,  0.000000000
 8.675833300, -0.000000001, -0.000000896, -0.000018991, -0.000000016, -0.000000249,  0.000000000,  0.000015504, -0.000012524, -0.000000796,  0.000000254,  0.000000217,  0.000000000
 8.809000000, -0.000000001, -0.000000896, -0.000018984, -0.000000016, -0.000000250,  0.000000000,  0.000014724, -0.000012057, -0.000000650,  0.000000240,  0.000000187,  0.000000000
 8.942166700,  0.000000000, -0.000000896, -0.000019007, -0.000000016, -0.000000249,  0.000000000,  0.000014060, -0.000011631, -0.000000544,  0.000000227,  0.000000169,  0.000000000
 9.075333300,  0.000000000, -0.000000894, -0.000019020, -0.000000016, -0.000000249,  0.000000000,  0.000013484, -0.000011239, -0.000000466,  0.000000216,  0.000000156,  0.000000000
 9.208500000,  0.000000000, -0.000000894, -0.000019003, -0.000000016, -0.000000249,  0.000000000,  0.000012974, -0.000010870, -0.000000410,  0.000000207,  0.000000144,  0.000000000
 9.341666700, -0.000000003, -0.000000896, -0.000019014, -0.000000016, -0.000000249,  0.000000000,  0.000012519, -0.000010524, -0.000000370,  0.000000203,  0.000000134,  0.000000000
 9.474833300,  0.000000000, -0.000000894, -0.000019006, -0.000000016, -0.000000249,  0.000000000,  0.000012103, -0.000010197, -0.000000340,  0.000000193,  0.000000129,  0.000000000
 9.608000000, -0.000000001, -0.000000896, -0.000019011, -0.000000016, -0.000000249,  0.000000000,  0.000011716, -0.000009883, -0.000000320,  0.000000186,  0.000000120,  0.000000000
 9.741166700, -0.000000001, -0.000000896, -0.000019017, -0.000000016, -0.000000249,  0.000000000,  0.000011360, -0.000009587, -0.000000306,  0.000000180,  0.000000117,  0.000000000
 9.874333300, -0.000000001, -0.000000894, -0.000019004, -0.000000016, -0.000000249,  0.000000000,  0.000011023, -0.000009301, -0.000000296,  0.000000176,  0.000000111,  0.000000000
10.007500000, -0.000000003, -0.000000897, -0.000019004, -0.000000016, -0.000000249,  0.000000000,  0.000010707, -0.000009026, -0.000000287,  0.000000171,  0.000000109,  0.000000000
10.140667000,  0.000000000, -0.000000894, -0.000019000, -0.000000016, -0.000000249,  0.000000000,  0.000010404, -0.000008764, -0.000000283,  0.000000166,  0.000000107,  0.000000000
10.273833000, -0.000000001, -0.000000896, -0.000019026, -0.000000016, -0.000000249,  0.000000000,  0.000010119, -0.000008509, -0.000000280,  0.000000161,  0.000000106,  0.000000000
10.407000000, -0.000000003, -0.000000897, -0.000019010, -0.000000016, -0.000000249,  0.000000000,  0.000009844, -0.000008264, -0.000000280,  0.000000157,  0.000000099,  0.000000000
10.540167000, -0.000000001, -0.000000894, -0.000019013, -0.000000016, -0.000000249,  0.000000000,  0.000009580, -0.000008029, -0.000000280,  0.000000153,  0.000000099,  0.000000000
10.673333000, -0.000000003, -0.000000896, -0.000019043, -0.000000016, -0.000000249,  0.000000000,  0.000009326, -0.000007800, -0.000000280,  0.000000149,  0.000000099,  0.000000000
10.806500000, -0.000000004, -0.000000897, -0.000018994, -0.000000016, -0.000000249,  0.000000000,  0.000009081, -0.000007580, -0.000000280,  0.000000146,  0.000000099,  0.000000000
10.939667000, -0.000000004, -0.000000897, -0.000019027, -0.000000016, -0.000000249,  0.000000000,  0.000008850, -0.000007370, -0.000000280,  0.000000140,  0.000000096,  0.000000000
11.072833000, -0.000000003, -0.000000897, -0.000019010, -0.000000016, -0.000000249,  0.000000000,  0.000008621, -0.000007163, -0.000000281,  0.000000137,  0.000000093,  0.000000000
11.206000000, -0.000000003, -0.000000897, -0.000019011, -0.000000016, -0.000000249,  0.000000000,  0.000008403, -0.000006966, -0.000000283,  0.000000134,  0.000000090,  0.000000000
11.339167000, -0.000000003, -0.000000897, -0.000019001, -0.000000016, -0.000000249,  0.000000000,  0.000008191, -0.000006774, -0.000000286,  0.000000130,  0.000000090,  0.000000000
11.472333000, -0.000000003, -0.000000897, -0.000019017, -0.000000016, -0.000000249,  0.000000000,  0.000007989, -0.000006590, -0.000000286,  0.000000127,  0.000000090,  0.000000000
11.605500000,  0.000000000, -0.000000894, -0.000019024, -0.000000016, -0.000000249,  0.000000000,  0.000007793, -0.000006410, -0.000000287,  0.000000126,  0.000000087,  0.000000000
11.738667000,  0.000000000, -0.000000896, -0.000019007, -0.000000016, -0.000000249,  0.000000000,  0.000007603, -0.000006236, -0.000000290,  0.000000120,  0.000000087,  0.000000000
11.871833000, -0.000000001, -0.000000894, -0.000019014, -0.000000016, -0.000000249,  0.000000000,  0.000007417, -0.000006070, -0.000000290,  0.000000119,  0.000000087,  0.000000000
12.005000000,  0.000000000, -0.000000894, -0.000019020, -0.000000016, -0.000000249,  0.000000000,  0.000007237, -0.000005907, -0.000000291,  0.000000117,  0.000000087,  0.000000001
12.138167000, -0.000000004, -0.000000897, -0.000019006, -0.000000016, -0.000000249,  0.000000000,  0.000007069, -0.000005751, -0.000000293,  0.000000113,  0.000000087,  0.000000001
12.271333000, -0.000000001, -0.000000894, -0.000019019, -0.000000016, -0.000000250,  0.000000000,  0.000006903, -0.000005601, -0.000000296,  0.000000110,  0.000000086,  0.000000001
12.404500000, -0.000000001, -0.000000896, -0.000019013, -0.000000016, -0.000000249,  0.000000000,  0.000006741, -0.000005454, -0.000000296,  0.000000109,  0.000000083,  0.000000001
12.537667000, -0.000000001, -0.000000897, -0.000019004, -0.000000016, -0.000000249,  0.000000000,  0.000006587, -0.000005314, -0.000000297,  0.000000106,  0.000000080,  0.000000001
12.670833000, -0.000000001, -0.000000897, -0.000019017, -0.000000016, -0.000000249,  0.000000000,  0.000006437, -0.000005176, -0.000000297,  0.000000106,  0.000000079,  0.000000001
12.804000000,  0.000000000, -0.000000896, -0.000019009, -0.000000016, -0.000000249,  0.000000000,  0.000006291, -0.000005044, -0.000000299,  0.000000103,  0.000000079,  0.000000001
12.937167000,  0.000000000, -0.000000896, -0.000019013, -0.000000016, -0.000000250,  0.000000000,  0.000006150, -0.000004914, -0.000000300,  0.000000099,  0.000000079,  0.000000001
13.070333000, -0.000000001, -0.000000896, -0.000018999, -0.000000016, -0.000000249,  0.000000000,  0.000006014, -0.000004790, -0.000000300,  0.000000096,  0.000000079,  0.000000000
13.203500000,  0.000000000, -0.000000896, -0.000019010, -0.000000016, -0.000000249,  0.000000000,  0.000005883, -0.000004670, -0.000000300,  0.000000094,  0.000000079,  0.000000000
13.336667000,  0.000000000, -0.000000896, -0.000019020, -0.000000016, -0.000000249,  0.000000000,  0.000005754, -0.000004557, -0.000000301,  0.000000093,  0.000000079,  0.000000000
13.469833000,  0.000000000, -0.000000896, -0.000019011, -0.000000016, -0.000000249,  0.000000000,  0.000005633, -0.000004446, -0.000000301,  0.000000091,  0.000000079,  0.000000000
13.603000000, -0.000000001, -0.000000897, -0.000019013, -0.000000016, -0.000000249,  0.000000000,  0.000005514, -0.000004339, -0.000000304,  0.000000091,  0.000000077,  0.000000000
13.736167000,  0.000000000, -0.000000894, -0.000019013, -0.000000016, -0.000000249,  0.000000000,  0.000005399, -0.000004229, -0.000000306,  0.000000087,  0.000000077,  0.000000000
13.869333000,  0.000000000, -0.000000894, -0.000019011, -0.000000016, -0.000000249,  0.000000000,  0.000005287, -0.000004129, -0.000000306,  0.000000086,  0.000000074,  0.000000000
14.002500000,  0.000000000, -0.000000894, -0.000019013, -0.000000016, -0.000000249,  0.000000000,  0.000005180, -0.000004031, -0.000000306,  0.000000086,  0.000000073,  0.000000000
14.135667000, -0.000000001, -0.000000894, -0.000019014, -0.000000016, -0.000000249,  0.000000000,  0.000005076, -0.000003937, -0.000000306,  0.000000081,  0.000000071,  0.000000000
14.268833000, -0.000000001, -0.000000894, -0.000019017, -0.000000016, -0.000000249,  0.000000000,  0.000004976, -0.000003847, -0.000000306,  0.000000081,  0.000000071,  0.000000000
14.402000000,  0.000000000, -0.000000894, -0.000019014, -0.000000016, -0.000000249,  0.000000000,  0.000004876, -0.000003757, -0.000000307,  0.000000080,  0.000000071,  0.000000000
14.535167000,  0.000000000, -0.000000894, -0.000019013, -0.000000016, -0.000000249,  0.000000000,  0.000004783, -0.000003671, -0.000000307,  0.000000079,  0.000000071,  0.000000000
14.668333000,  0.000000000, -0.000000894, -0.000019019, -0.000000016, -0.000000249,  0.000000000,  0.000004691, -0.000003590, -0.000000307,  0.000000076,  0.000000071,  0.000000000
14.801500000,  0.000000000, -0.000000894, -0.000019011, -0.000000016, -0.000000249,  0.000000000,  0.000004603, -0.000003510, -0.000000307,  0.000000076,  0.000000071,  0.000000000
14.934667000, -0.000000001, -0.000000894, -0.000019013, -0.000000016, -0.000000249,  0.000000000,  0.000004517, -0.000003431, -0.000000307,  0.000000074,  0.000000071,  0.000000000
15.067833000,  0.000000000, -0.000000896, -0.000019019, -0.000000016, -0.000000249,  0.000000000,  0.000004434, -0.000003357, -0.000000307,  0.000000070,  0.000000069,  0.000000000
15.201000000,  0.000000000, -0.000000896, -0.000019019, -0.000000016, -0.000000249,  0.000000000,  0.000004354, -0.000003283, -0.000000307,  0.000000070,  0.000000067,  0.000000000
15.334167000,  0.000000000, -0.000000896, -0.000019017, -0.000000016, -0.000000249,  0.000000000,  0.000004276, -0.000003213, -0.000000309,  0.000000069,  0.000000067,  0.000000000
15.467333000,  0.000000000, -0.000000896, -0.000019011, -0.000000016, -0.000000249,  0.000000000,  0.000004203, -0.000003144, -0.000000309,  0.000000069,  0.000000067,  0.000000000
15.600500000,  0.000000000, -0.000000896, -0.000019010, -0.000000016, -0.000000249,  0.000000000,  0.000004130, -0.000003081, -0.000000309,  0.000000067,  0.000000067,  0.000000000
15.733667000,  0.000000000, -0.000000896, -0.000019016, -0.000000016, -0.000000249,  0.000000000,  0.000004060, -0.000003017, -0.000000309,  0.000000069,  0.000000067,  0.000000000
15.866833000,  0.000000000, -0.000000896, -0.000019014, -0.000000016, -0.000000249,  0.000000000,  0.000003991, -0.000002956, -0.000000309,  0.000000067,  0.000000067,  0.000000000
16.000000000,  0.000000000, -0.000000894, -0.000019017, -0.000000016, -0.000000249,  0.000000000,  0.000003927, -0.000002896, -0.000000309,  0.000000066,  0.000000067,  0.000000000
