Time (m)    , Stress_xx (MPa), Stress_yy (MPa), Stress_zz (MPa), Stress_xy (MPa), Stress_xz (MPa), Stress_yz (MPa), Strain_xx   , Strain_yy   , Strain_zz   , Strain_xy   , Strain_xz   , Strain_yz   
  0.00000000,   0.00000000,   0.00000000,   0.00000000,   0.00000000,   0.00000000,   0.00000000,   0.00000000,   0.00000000,   0.00000000,   0.00000000,   0.00000000,   0.00000000
  0.00050000,   0.04999998,  -0.00000000,  -0.00000113,  -0.00000000,  -0.00000002,   0.00000000,   0.00001143,  -0.00000440,  -0.00000087,   0.00000036,   0.00000008,  -0.00000001
  0.00100000,   0.09999972,  -0.00000016,  -0.00000038,  -0.00000001,  -0.00000000,   0.00000000,   0.00002365,  -0.00000939,  -0.00000177,   0.00000075,   0.00000016,  -0.00000002
  0.00150000,   0.14999926,  -0.00000042,  -0.00000591,  -0.00000004,  -0.00000008,  -0.00000000,   0.00003603,  -0.00001450,  -0.00000268,   0.00000114,   0.00000025,  -0.00000004
  0.00200000,   0.19999858,  -0.00000096,  -0.00000665,  -0.00000006,  -0.00000004,   0.00000001,   0.00004848,  -0.00001968,  -0.00000359,   0.00000153,   0.00000033,  -0.00000005
  0.00250000,   0.24999771,  -0.00000156,  -0.00000651,  -0.00000008,  -0.00000002,  -0.00000001,   0.00006096,  -0.00002489,  -0.00000449,   0.00000192,   0.00000042,  -0.00000006
  0.00300000,   0.29999631,  -0.00000217,  -0.00000452,  -0.00000013,  -0.00000002,   0.00000000,   0.00007345,  -0.00003012,  -0.00000540,   0.00000232,   0.00000050,  -0.00000008
  0.00350000,   0.34999626,  -0.00000223,  -0.00001012,  -0.00000014,  -0.00000010,   0.00000000,   0.00008596,  -0.00003535,  -0.00000631,   0.00000271,   0.00000059,  -0.00000009
  0.00400000,   0.39999604,  -0.00000191,   0.00000207,  -0.00000013,   0.00000007,   0.00000001,   0.00009847,  -0.00004059,  -0.00000722,   0.00000311,   0.00000067,  -0.00000010
  0.00450000,   0.44999705,  -0.00000102,  -0.00000187,  -0.00000009,  -0.00000000,   0.00000000,   0.00011098,  -0.00004583,  -0.00000813,   0.00000350,   0.00000076,  -0.00000012
  0.00500000,   0.50000366,  -0.00000815,   0.00001396,  -0.00000006,   0.00000027,   0.00000001,   0.00012350,  -0.00005108,  -0.00000904,   0.00000390,   0.00000084,  -0.00000013
  0.00550000,   0.54999950,  -0.00000104,  -0.00000372,  -0.00000004,  -0.00000003,   0.00000000,   0.00013602,  -0.00005632,  -0.00000995,   0.00000429,   0.00000093,  -0.00000014
  0.00600000,   0.59999833,   0.00000080,   0.00000324,  -0.00000002,   0.00000004,   0.00000000,   0.00014854,  -0.00006157,  -0.00001085,   0.00000468,   0.00000101,  -0.00000015
  0.00650000,   0.65000796,  -0.00000481,  -0.00006154,   0.00000001,  -0.00000081,  -0.00000000,   0.00016106,  -0.00006683,  -0.00001177,   0.00000508,   0.00000110,  -0.00000017
  0.00700000,   0.70000226,  -0.00000084,  -0.00002695,   0.00000001,  -0.00000034,  -0.00000000,   0.00017359,  -0.00007208,  -0.00001267,   0.00000547,   0.00000118,  -0.00000018
  0.00750000,   0.74999750,   0.00000131,   0.00001683,  -0.00000000,   0.00000023,   0.00000001,   0.00018611,  -0.00007733,  -0.00001358,   0.00000587,   0.00000127,  -0.00000019
  0.00800000,   0.79999660,   0.00000222,   0.00001437,  -0.00000002,   0.00000015,   0.00000001,   0.00019864,  -0.00008259,  -0.00001449,   0.00000626,   0.00000135,  -0.00000021
  0.00850000,   0.84999870,   0.00000090,  -0.00000438,  -0.00000002,  -0.00000008,   0.00000000,   0.00021117,  -0.00008785,  -0.00001540,   0.00000666,   0.00000144,  -0.00000022
  0.00900000,   0.89999854,  -0.00000730,   0.00010133,  -0.00000001,   0.00000150,   0.00000003,   0.00022371,  -0.00009312,  -0.00001631,   0.00000705,   0.00000152,  -0.00000023
  0.00950000,   0.94999936,  -0.00000096,  -0.00000134,  -0.00000003,   0.00000001,   0.00000000,   0.00023624,  -0.00009838,  -0.00001722,   0.00000745,   0.00000161,  -0.00000024
  0.01000000,   0.99999812,   0.00000027,   0.00000060,  -0.00000003,  -0.00000000,  -0.00000000,   0.00024878,  -0.00010364,  -0.00001813,   0.00000784,   0.00000169,  -0.00000026
  0.07658333,   1.00000990,   0.00000855,  -0.00000665,   0.00000044,  -0.00000027,  -0.00000002,   0.00025331,  -0.00010708,  -0.00001854,   0.00000799,   0.00000176,  -0.00000026
  0.14316667,   1.00000400,   0.00000360,  -0.00002161,   0.00000016,  -0.00000037,   0.00000000,   0.00025487,  -0.00010795,  -0.00001887,   0.00000804,   0.00000181,  -0.00000026
  0.20975000,   1.00000590,   0.00000544,  -0.00000885,   0.00000023,  -0.00000023,  -0.00000001,   0.00025606,  -0.00010854,  -0.00001916,   0.00000808,   0.00000185,  -0.00000027
  0.27633333,   1.00000620,   0.00000611,   0.00001034,   0.00000025,   0.00000017,  -0.00000002,   0.00025704,  -0.00010901,  -0.00001940,   0.00000812,   0.00000189,  -0.00000027
  0.34291667,   1.00001240,   0.00001095,   0.00001616,   0.00000041,   0.00000012,  -0.00000001,   0.00025790,  -0.00010942,  -0.00001961,   0.00000815,   0.00000193,  -0.00000027
  0.40950000,   1.00001350,   0.00001240,   0.00002138,   0.00000046,  -0.00000001,  -0.00000001,   0.00025865,  -0.00010979,  -0.00001979,   0.00000818,   0.00000195,  -0.00000027
  0.47608333,   1.00001150,   0.00001084,   0.00001753,   0.00000040,  -0.00000002,   0.00000000,   0.00025931,  -0.00011014,  -0.00001994,   0.00000820,   0.00000198,  -0.00000027
  0.54266667,   1.00001010,   0.00000946,   0.00000797,   0.00000034,   0.00000023,  -0.00000001,   0.00025992,  -0.00011046,  -0.00002007,   0.00000822,   0.00000200,  -0.00000027
  0.60925000,   1.00001990,   0.00000861,   0.00000967,   0.00000043,   0.00000063,  -0.00000001,   0.00026047,  -0.00011077,  -0.00002018,   0.00000824,   0.00000202,  -0.00000027
  0.67583333,   1.00001170,   0.00001045,   0.00001243,   0.00000036,   0.00000020,  -0.00000002,   0.00026096,  -0.00011106,  -0.00002027,   0.00000826,   0.00000203,  -0.00000027
  0.74241667,   1.00000660,   0.00000683,   0.00000597,   0.00000023,  -0.00000000,  -0.00000000,   0.00026142,  -0.00011133,  -0.00002035,   0.00000827,   0.00000205,  -0.00000028
  0.80900000,   1.00001480,   0.00000095,  -0.00001547,   0.00000025,   0.00000084,  -0.00000001,   0.00026184,  -0.00011160,  -0.00002042,   0.00000829,   0.00000206,  -0.00000028
  0.87558333,   1.00001320,   0.00000548,   0.00000875,   0.00000028,   0.00000057,  -0.00000001,   0.00026223,  -0.00011185,  -0.00002047,   0.00000830,   0.00000207,  -0.00000028
  0.94216667,   1.00001380,   0.00000892,   0.00000390,   0.00000032,   0.00000012,  -0.00000001,   0.00026260,  -0.00011210,  -0.00002052,   0.00000832,   0.00000208,  -0.00000028
  1.00875000,   1.00001900,   0.00000813,  -0.00001025,   0.00000039,   0.00000041,  -0.00000001,   0.00026295,  -0.00011233,  -0.00002056,   0.00000833,   0.00000209,  -0.00000028
  1.07533330,   1.00001610,   0.00001020,   0.00000874,   0.00000040,   0.00000028,  -0.00000000,   0.00026327,  -0.00011256,  -0.00002060,   0.00000834,   0.00000210,  -0.00000028
  1.14191670,   1.00001360,   0.00000996,   0.00000479,   0.00000037,   0.00000004,  -0.00000000,   0.00026358,  -0.00011278,  -0.00002063,   0.00000835,   0.00000210,  -0.00000028
  1.20850000,   1.00001100,   0.00000790,   0.00000570,   0.00000032,   0.00000007,  -0.00000000,   0.00026386,  -0.00011300,  -0.00002065,   0.00000836,   0.00000211,  -0.00000028
  1.27508330,   1.00001050,   0.00000458,   0.00000036,   0.00000027,   0.00000030,  -0.00000000,   0.00026414,  -0.00011321,  -0.00002068,   0.00000837,   0.00000211,  -0.00000028
  1.34166670,   1.00000930,   0.00000283,  -0.00000689,   0.00000021,   0.00000041,  -0.00000001,   0.00026440,  -0.00011342,  -0.00002070,   0.00000837,   0.00000212,  -0.00000028
  1.40825000,   1.00000490,   0.00000335,   0.00000511,   0.00000014,   0.00000013,  -0.00000000,   0.00026466,  -0.00011361,  -0.00002071,   0.00000838,   0.00000212,  -0.00000028
  1.47483330,   1.00000250,   0.00000318,   0.00000124,   0.00000008,  -0.00000005,  -0.00000001,   0.00026490,  -0.00011381,  -0.00002072,   0.00000839,   0.00000212,  -0.00000028
  1.54141670,   1.00000180,   0.00000192,   0.00000195,   0.00000005,   0.00000001,  -0.00000001,   0.00026514,  -0.00011400,  -0.00002074,   0.00000840,   0.00000213,  -0.00000028
  1.60800000,   1.00000090,   0.00000174,   0.00000097,   0.00000002,  -0.00000002,  -0.00000001,   0.00026537,  -0.00011419,  -0.00002075,   0.00000840,   0.00000213,  -0.00000028
  1.67458330,   1.00000070,   0.00000133,   0.00000177,   0.00000001,   0.00000002,  -0.00000000,   0.00026559,  -0.00011437,  -0.00002076,   0.00000841,   0.00000213,  -0.00000028
  1.74116670,   0.99999199,   0.00000591,   0.00011096,  -0.00000001,   0.00000118,  -0.00000001,   0.00026580,  -0.00011455,  -0.00002076,   0.00000842,   0.00000214,  -0.00000028
  1.80775000,   1.00000110,   0.00000260,   0.00000350,   0.00000003,  -0.00000010,  -0.00000002,   0.00026602,  -0.00011472,  -0.00002077,   0.00000842,   0.00000214,  -0.00000028
  1.87433330,   1.00000200,   0.00000158,   0.00000276,   0.00000005,   0.00000006,  -0.00000000,   0.00026622,  -0.00011490,  -0.00002078,   0.00000843,   0.00000214,  -0.00000028
  1.94091670,   1.00000150,   0.00000164,   0.00000411,   0.00000004,   0.00000009,  -0.00000000,   0.00026642,  -0.00011507,  -0.00002078,   0.00000844,   0.00000214,  -0.00000028
  2.00750000,   0.99999550,   0.00000630,   0.00004462,   0.00000003,   0.00000034,   0.00000001,   0.00026662,  -0.00011523,  -0.00002078,   0.00000844,   0.00000215,  -0.00000028
  2.07408330,   1.00000100,   0.00000250,  -0.00000019,   0.00000005,  -0.00000009,  -0.00000000,   0.00026681,  -0.00011539,  -0.00002079,   0.00000845,   0.00000215,  -0.00000028
  2.14066670,   1.00000130,   0.00000133,   0.00000281,   0.00000005,   0.00000005,  -0.00000000,   0.00026700,  -0.00011556,  -0.00002079,   0.00000846,   0.00000215,  -0.00000028
  2.20725000,   0.99999581,   0.00000632,   0.00002032,   0.00000003,   0.00000001,  -0.00000001,   0.00026719,  -0.00011571,  -0.00002080,   0.00000846,   0.00000215,  -0.00000028
  2.27383330,   1.00000050,   0.00000208,  -0.00000025,   0.00000004,  -0.00000009,  -0.00000000,   0.00026737,  -0.00011587,  -0.00002080,   0.00000847,   0.00000215,  -0.00000028
  2.34041670,   1.00000070,   0.00000098,   0.00000289,   0.00000004,   0.00000004,  -0.00000000,   0.00026755,  -0.00011602,  -0.00002080,   0.00000847,   0.00000216,  -0.00000028
  2.40700000,   0.99999633,   0.00000573,   0.00000096,   0.00000002,  -0.00000021,  -0.00000000,   0.00026772,  -0.00011617,  -0.00002081,   0.00000848,   0.00000216,  -0.00000028
  2.47358330,   0.99999979,   0.00000154,   0.00000508,   0.00000003,   0.00000001,  -0.00000000,   0.00026789,  -0.00011632,  -0.00002081,   0.00000848,   0.00000216,  -0.00000028
  2.54016670,   1.00000030,   0.00000099,  -0.00000476,   0.00000002,  -0.00000008,  -0.00000000,   0.00026806,  -0.00011646,  -0.00002081,   0.00000849,   0.00000216,  -0.00000028
  2.60675000,   0.99999326,   0.00000302,   0.00009338,   0.00000000,   0.00000123,  -0.00000000,   0.00026823,  -0.00011661,  -0.00002081,   0.00000850,   0.00000216,  -0.00000028
  2.67333330,   0.99999946,   0.00000134,   0.00000523,   0.00000001,  -0.00000000,  -0.00000001,   0.00026839,  -0.00011675,  -0.00002081,   0.00000850,   0.00000216,  -0.00000028
  2.73991670,   1.00000120,   0.00000030,  -0.00001172,   0.00000002,  -0.00000016,  -0.00000001,   0.00026855,  -0.00011688,  -0.00002082,   0.00000851,   0.00000216,  -0.00000028
  2.80650000,   0.99999993,   0.00000054,   0.00000254,   0.00000001,   0.00000004,   0.00000000,   0.00026871,  -0.00011702,  -0.00002082,   0.00000851,   0.00000217,  -0.00000028
  2.87308330,   0.99999966,   0.00000071,  -0.00000120,   0.00000001,  -0.00000003,   0.00000000,   0.00026887,  -0.00011715,  -0.00002082,   0.00000852,   0.00000217,  -0.00000028
  2.93966670,   0.99999543,   0.00000313,   0.00003683,  -0.00000000,   0.00000048,   0.00000001,   0.00026902,  -0.00011729,  -0.00002082,   0.00000852,   0.00000217,  -0.00000028
  3.00625000,   0.99999908,   0.00000091,   0.00000939,   0.00000001,   0.00000010,   0.00000001,   0.00026917,  -0.00011742,  -0.00002082,   0.00000852,   0.00000217,  -0.00000028
  3.07283330,   0.99999973,   0.00000049,   0.00000250,   0.00000001,   0.00000003,   0.00000000,   0.00026932,  -0.00011754,  -0.00002083,   0.00000853,   0.00000217,  -0.00000028
  3.13941670,   0.99999550,   0.00000358,   0.00002994,  -0.00000000,   0.00000034,   0.00000002,   0.00026946,  -0.00011767,  -0.00002083,   0.00000853,   0.00000217,  -0.00000028
  3.20600000,   0.99999935,   0.00000126,  -0.00000023,   0.00000001,  -0.00000004,   0.00000000,   0.00026961,  -0.00011779,  -0.00002083,   0.00000854,   0.00000217,  -0.00000028
  3.27258330,   0.99999973,   0.00000049,   0.00000246,   0.00000001,   0.00000003,   0.00000000,   0.00026975,  -0.00011791,  -0.00002083,   0.00000854,   0.00000218,  -0.00000028
  3.33916670,   0.99999703,   0.00000443,  -0.00001596,  -0.00000000,  -0.00000032,  -0.00000000,   0.00026989,  -0.00011803,  -0.00002084,   0.00000855,   0.00000218,  -0.00000028
  3.40575000,   0.99999915,   0.00000114,   0.00000221,   0.00000001,  -0.00000000,   0.00000000,   0.00027003,  -0.00011815,  -0.00002084,   0.00000855,   0.00000218,  -0.00000028
  3.47233330,   0.99999898,   0.00000661,  -0.00009042,  -0.00000000,  -0.00000142,  -0.00000001,   0.00027016,  -0.00011826,  -0.00002084,   0.00000856,   0.00000218,  -0.00000028
  3.53891670,   1.00000000,   0.00000200,  -0.00002592,   0.00000001,  -0.00000043,  -0.00000001,   0.00027029,  -0.00011838,  -0.00002084,   0.00000856,   0.00000218,  -0.00000028
  3.60550000,   0.99999984,   0.00000057,  -0.00000152,   0.00000001,  -0.00000003,   0.00000000,   0.00027043,  -0.00011849,  -0.00002084,   0.00000856,   0.00000218,  -0.00000028
  3.67208330,   0.99999955,   0.00000056,  -0.00000141,   0.00000000,  -0.00000003,   0.00000000,   0.00027055,  -0.00011860,  -0.00002084,   0.00000857,   0.00000218,  -0.00000028
  3.73866670,   0.99999642,   0.00000301,   0.00001349,  -0.00000001,   0.00000015,   0.00000000,   0.00027068,  -0.00011871,  -0.00002085,   0.00000857,   0.00000218,  -0.00000028
  3.80525000,   0.99999909,   0.00000094,  -0.00000088,  -0.00000000,  -0.00000004,  -0.00000000,   0.00027081,  -0.00011882,  -0.00002085,   0.00000858,   0.00000218,  -0.00000028
  3.87183330,   0.99999333,   0.00000254,   0.00008216,  -0.00000001,   0.00000116,   0.00000002,   0.00027093,  -0.00011893,  -0.00002085,   0.00000858,   0.00000219,  -0.00000028
  3.93841670,   0.99999817,   0.00000072,   0.00002411,  -0.00000001,   0.00000033,  -0.00000000,   0.00027105,  -0.00011903,  -0.00002085,   0.00000858,   0.00000219,  -0.00000028
  4.00500000,   0.99999937,   0.00000036,   0.00000556,   0.00000000,   0.00000007,   0.00000000,   0.00027117,  -0.00011913,  -0.00002085,   0.00000859,   0.00000219,  -0.00000028
  4.07158330,   0.99999919,   0.00000042,   0.00000426,  -0.00000000,   0.00000005,   0.00000000,   0.00027129,  -0.00011923,  -0.00002086,   0.00000859,   0.00000219,  -0.00000028
  4.13816670,   0.99999732,   0.00000311,  -0.00000825,  -0.00000001,  -0.00000017,  -0.00000000,   0.00027141,  -0.00011933,  -0.00002086,   0.00000859,   0.00000219,  -0.00000028
  4.20475000,   0.99999885,   0.00000079,   0.00000425,  -0.00000001,   0.00000004,  -0.00000000,   0.00027152,  -0.00011943,  -0.00002086,   0.00000860,   0.00000219,  -0.00000028
  4.27133330,   0.99999929,   0.00000050,  -0.00000149,  -0.00000000,  -0.00000003,  -0.00000000,   0.00027164,  -0.00011953,  -0.00002086,   0.00000860,   0.00000219,  -0.00000028
  4.33791670,   0.99999551,   0.00000217,   0.00004105,  -0.00000002,   0.00000056,  -0.00000000,   0.00027175,  -0.00011962,  -0.00002086,   0.00000860,   0.00000219,  -0.00000028
  4.40450000,   0.99999845,   0.00000073,   0.00001360,  -0.00000001,   0.00000018,  -0.00000000,   0.00027186,  -0.00011972,  -0.00002086,   0.00000861,   0.00000219,  -0.00000028
  4.47108330,   1.00000030,   0.00000060,  -0.00002062,   0.00000000,  -0.00000031,  -0.00000000,   0.00027197,  -0.00011981,  -0.00002087,   0.00000861,   0.00000220,  -0.00000028
  4.53766670,   0.99999976,   0.00000023,  -0.00000374,   0.00000000,  -0.00000006,  -0.00000000,   0.00027208,  -0.00011990,  -0.00002087,   0.00000861,   0.00000220,  -0.00000028
  4.60425000,   0.99999919,   0.00000054,  -0.00000130,  -0.00000001,  -0.00000003,  -0.00000000,   0.00027218,  -0.00011999,  -0.00002087,   0.00000862,   0.00000220,  -0.00000028
  4.67083330,   0.99999736,   0.00000242,   0.00000112,  -0.00000001,  -0.00000003,   0.00000000,   0.00027229,  -0.00012008,  -0.00002087,   0.00000862,   0.00000220,  -0.00000028
  4.73741670,   0.99999906,   0.00000090,  -0.00000430,  -0.00000001,  -0.00000008,  -0.00000000,   0.00027239,  -0.00012016,  -0.00002088,   0.00000862,   0.00000220,  -0.00000028
  4.80400000,   0.99999904,   0.00000035,   0.00000354,  -0.00000001,   0.00000004,  -0.00000000,   0.00027249,  -0.00012025,  -0.00002088,   0.00000863,   0.00000220,  -0.00000028
  4.87058330,   0.99999865,   0.00000379,  -0.00004994,  -0.00000002,  -0.00000077,  -0.00000001,   0.00027259,  -0.00012033,  -0.00002088,   0.00000863,   0.00000220,  -0.00000028
  4.93716670,   0.99999896,   0.00000107,  -0.00000566,  -0.00000001,  -0.00000011,  -0.00000001,   0.00027269,  -0.00012042,  -0.00002088,   0.00000863,   0.00000220,  -0.00000028
  5.00375000,   0.99999918,   0.00000048,  -0.00000064,  -0.00000001,  -0.00000002,  -0.00000000,   0.00027279,  -0.00012050,  -0.00002088,   0.00000864,   0.00000220,  -0.00000028
  5.07033330,   0.99999750,   0.00000314,  -0.00001647,  -0.00000003,  -0.00000026,  -0.00000001,   0.00027288,  -0.00012058,  -0.00002089,   0.00000864,   0.00000220,  -0.00000028
  5.13691670,   0.99999853,   0.00000066,   0.00000944,  -0.00000001,   0.00000011,  -0.00000000,   0.00027298,  -0.00012066,  -0.00002089,   0.00000864,   0.00000220,  -0.00000028
  5.20350000,   0.99999917,   0.00000040,  -0.00000057,  -0.00000001,  -0.00000002,  -0.00000000,   0.00027307,  -0.00012074,  -0.00002089,   0.00000864,   0.00000221,  -0.00000028
  5.27008330,   0.99999520,   0.00000140,   0.00005707,  -0.00000002,   0.00000078,   0.00000000,   0.00027316,  -0.00012081,  -0.00002089,   0.00000865,   0.00000221,  -0.00000028
  5.33666670,   0.99999877,   0.00000081,  -0.00000018,  -0.00000002,  -0.00000002,  -0.00000000,   0.00027325,  -0.00012089,  -0.00002090,   0.00000865,   0.00000221,  -0.00000028
  5.40325000,   0.99999943,   0.00000014,  -0.00000240,  -0.00000001,  -0.00000004,  -0.00000000,   0.00027334,  -0.00012096,  -0.00002090,   0.00000865,   0.00000221,  -0.00000028
  5.46983330,   0.99999881,   0.00000035,   0.00000349,  -0.00000002,   0.00000004,  -0.00000000,   0.00027343,  -0.00012104,  -0.00002090,   0.00000866,   0.00000221,  -0.00000028
  5.53641670,   0.99999889,   0.00000275,  -0.00004108,  -0.00000002,  -0.00000064,  -0.00000000,   0.00027352,  -0.00012111,  -0.00002090,   0.00000866,   0.00000221,  -0.00000028
  5.60300000,   0.99999866,   0.00000061,   0.00000258,  -0.00000002,   0.00000002,  -0.00000000,   0.00027360,  -0.00012118,  -0.00002090,   0.00000866,   0.00000221,  -0.00000028
  5.66958330,   0.99999897,   0.00000040,  -0.00000073,  -0.00000002,  -0.00000002,  -0.00000000,   0.00027369,  -0.00012125,  -0.00002091,   0.00000866,   0.00000221,  -0.00000028
  5.73616670,   0.99999644,   0.00000168,   0.00002497,  -0.00000003,   0.00000033,  -0.00000001,   0.00027377,  -0.00012132,  -0.00002091,   0.00000867,   0.00000221,  -0.00000028
  5.80275000,   0.99999879,   0.00000075,  -0.00000204,  -0.00000002,  -0.00000005,  -0.00000000,   0.00027385,  -0.00012139,  -0.00002091,   0.00000867,   0.00000221,  -0.00000028
  5.86933330,   0.99999890,   0.00000035,   0.00000148,  -0.00000002,   0.00000001,  -0.00000000,   0.00027393,  -0.00012146,  -0.00002091,   0.00000867,   0.00000221,  -0.00000028
  5.93591670,   0.99999796,   0.00000253,  -0.00001931,  -0.00000002,  -0.00000032,  -0.00000000,   0.00027401,  -0.00012152,  -0.00002092,   0.00000867,   0.00000221,  -0.00000029
  6.00250000,   0.99999861,   0.00000067,   0.00000230,  -0.00000002,   0.00000001,  -0.00000000,   0.00027409,  -0.00012159,  -0.00002092,   0.00000868,   0.00000222,  -0.00000029
  6.06908330,   0.99999893,   0.00000038,  -0.00000040,  -0.00000002,  -0.00000002,  -0.00000000,   0.00027417,  -0.00012165,  -0.00002092,   0.00000868,   0.00000222,  -0.00000029
  6.13566670,   0.99999665,   0.00000167,   0.00002031,  -0.00000003,   0.00000026,  -0.00000000,   0.00027425,  -0.00012172,  -0.00002092,   0.00000868,   0.00000222,  -0.00000029
  6.20225000,   0.99999868,   0.00000070,  -0.00000055,  -0.00000002,  -0.00000003,  -0.00000000,   0.00027433,  -0.00012178,  -0.00002093,   0.00000868,   0.00000222,  -0.00000029
  6.26883330,   0.99999337,   0.00000019,   0.00010998,  -0.00000003,   0.00000158,   0.00000000,   0.00027440,  -0.00012184,  -0.00002092,   0.00000869,   0.00000222,  -0.00000029
  6.33541670,   0.99999784,   0.00000033,   0.00002442,  -0.00000002,   0.00000034,  -0.00000000,   0.00027447,  -0.00012190,  -0.00002093,   0.00000869,   0.00000222,  -0.00000029
  6.40200000,   0.99999987,   0.00000057,  -0.00002007,  -0.00000002,  -0.00000031,  -0.00000000,   0.00027455,  -0.00012196,  -0.00002093,   0.00000869,   0.00000222,  -0.00000029
  6.46858330,   0.99999994,   0.00000068,  -0.00002458,  -0.00000001,  -0.00000037,  -0.00000000,   0.00027462,  -0.00012202,  -0.00002094,   0.00000869,   0.00000222,  -0.00000029
  6.53516670,   0.99999869,   0.00000034,   0.00000277,  -0.00000002,   0.00000003,  -0.00000000,   0.00027469,  -0.00012208,  -0.00002094,   0.00000869,   0.00000222,  -0.00000029
  6.60175000,   0.99999868,   0.00000039,  -0.00000005,  -0.00000002,  -0.00000002,  -0.00000000,   0.00027476,  -0.00012214,  -0.00002094,   0.00000870,   0.00000222,  -0.00000029
  6.66833330,   0.99999690,   0.00000121,   0.00001907,  -0.00000003,   0.00000025,  -0.00000000,   0.00027483,  -0.00012220,  -0.00002094,   0.00000870,   0.00000222,  -0.00000029
  6.73491670,   0.99999858,   0.00000056,  -0.00000072,  -0.00000002,  -0.00000003,  -0.00000000,   0.00027490,  -0.00012225,  -0.00002094,   0.00000870,   0.00000222,  -0.00000029
  6.80150000,   0.99999368,  -0.00000011,   0.00010599,  -0.00000003,   0.00000153,   0.00000000,   0.00027497,  -0.00012231,  -0.00002094,   0.00000870,   0.00000222,  -0.00000029
  6.86808330,   0.99999735,  -0.00000006,   0.00003583,  -0.00000003,   0.00000050,  -0.00000000,   0.00027504,  -0.00012236,  -0.00002095,   0.00000871,   0.00000223,  -0.00000029
  6.93466670,   1.00000030,   0.00000099,  -0.00003973,  -0.00000002,  -0.00000060,  -0.00000001,   0.00027510,  -0.00012242,  -0.00002095,   0.00000871,   0.00000223,  -0.00000029
  7.00125000,   0.99999952,   0.00000046,  -0.00001580,  -0.00000002,  -0.00000025,  -0.00000000,   0.00027517,  -0.00012247,  -0.00002096,   0.00000871,   0.00000223,  -0.00000029
  7.06783330,   0.99999876,   0.00000048,  -0.00000298,  -0.00000002,  -0.00000006,  -0.00000000,   0.00027523,  -0.00012252,  -0.00002096,   0.00000871,   0.00000223,  -0.00000029
  7.13441670,   0.99999862,   0.00000042,  -0.00000112,  -0.00000002,  -0.00000003,  -0.00000000,   0.00027530,  -0.00012257,  -0.00002096,   0.00000871,   0.00000223,  -0.00000029
  7.20100000,   0.99999758,   0.00000140,   0.00000110,  -0.00000003,  -0.00000001,  -0.00000000,   0.00027536,  -0.00012262,  -0.00002096,   0.00000872,   0.00000223,  -0.00000029
  7.26758330,   0.99999852,   0.00000052,  -0.00000077,  -0.00000002,  -0.00000003,  -0.00000000,   0.00027542,  -0.00012267,  -0.00002096,   0.00000872,   0.00000223,  -0.00000029
  7.33416670,   0.99999676,   0.00000142,   0.00001762,  -0.00000003,   0.00000022,  -0.00000000,   0.00027548,  -0.00012272,  -0.00002097,   0.00000872,   0.00000223,  -0.00000029
  7.40075000,   0.99999859,   0.00000064,  -0.00000252,  -0.00000002,  -0.00000006,  -0.00000000,   0.00027554,  -0.00012277,  -0.00002097,   0.00000872,   0.00000223,  -0.00000029
  7.46733330,   0.99999865,   0.00000029,   0.00000188,  -0.00000002,   0.00000002,  -0.00000000,   0.00027560,  -0.00012282,  -0.00002097,   0.00000872,   0.00000223,  -0.00000029
  7.53391670,   0.99999842,   0.00000210,  -0.00002589,  -0.00000002,  -0.00000041,  -0.00000000,   0.00027566,  -0.00012287,  -0.00002098,   0.00000873,   0.00000223,  -0.00000029
  7.60050000,   0.99999845,   0.00000054,   0.00000171,  -0.00000002,   0.00000001,  -0.00000000,   0.00027572,  -0.00012292,  -0.00002098,   0.00000873,   0.00000223,  -0.00000029
  7.66708330,   0.99999868,   0.00000012,   0.00000391,  -0.00000002,   0.00000005,  -0.00000000,   0.00027578,  -0.00012296,  -0.00002098,   0.00000873,   0.00000223,  -0.00000029
  7.73366670,   0.99999837,   0.00000212,  -0.00002459,  -0.00000002,  -0.00000040,  -0.00000000,   0.00027584,  -0.00012301,  -0.00002098,   0.00000873,   0.00000224,  -0.00000029
  7.80025000,   0.99999839,   0.00000055,   0.00000233,  -0.00000002,   0.00000001,  -0.00000000,   0.00027589,  -0.00012305,  -0.00002098,   0.00000873,   0.00000224,  -0.00000029
  7.86683330,   0.99999866,   0.00000035,  -0.00000054,  -0.00000002,  -0.00000002,  -0.00000000,   0.00027595,  -0.00012310,  -0.00002099,   0.00000873,   0.00000224,  -0.00000029
  7.93341670,   0.99999686,   0.00000101,   0.00002154,  -0.00000003,   0.00000028,   0.00000000,   0.00027600,  -0.00012314,  -0.00002099,   0.00000874,   0.00000224,  -0.00000029
  8.00000000,   0.99999848,   0.00000055,  -0.00000077,  -0.00000002,  -0.00000003,  -0.00000000,   0.00027606,  -0.00012318,  -0.00002099,   0.00000874,   0.00000224,  -0.00000029
  8.00025000,   0.97500609,   0.00000325,  -0.00001161,   0.00000019,  -0.00000018,   0.00000000,   0.00027063,  -0.00012117,  -0.00002057,   0.00000857,   0.00000220,  -0.00000028
  8.00050000,   0.95000454,   0.00000530,   0.00000303,   0.00000021,  -0.00000004,   0.00000001,   0.00026468,  -0.00011881,  -0.00002013,   0.00000838,   0.00000216,  -0.00000027
  8.00075000,   0.92500851,   0.00000735,   0.00000395,   0.00000033,  -0.00000007,  -0.00000001,   0.00025861,  -0.00011635,  -0.00001968,   0.00000819,   0.00000212,  -0.00000027
  8.00100000,   0.90000341,   0.00000744,  -0.00000454,   0.00000031,  -0.00000002,  -0.00000002,   0.00025246,  -0.00011384,  -0.00001922,   0.00000799,   0.00000208,  -0.00000026
  8.00125000,   0.87500595,   0.00000355,   0.00001676,   0.00000022,   0.00000011,  -0.00000000,   0.00024628,  -0.00011129,  -0.00001877,   0.00000780,   0.00000204,  -0.00000025
  8.00150000,   0.85000864,   0.00000425,  -0.00003026,   0.00000022,  -0.00000053,  -0.00000002,   0.00024007,  -0.00010871,  -0.00001832,   0.00000760,   0.00000199,  -0.00000025
  8.00175000,   0.82500619,   0.00000244,   0.00000356,   0.00000019,  -0.00000003,  -0.00000001,   0.00023384,  -0.00010612,  -0.00001786,   0.00000740,   0.00000195,  -0.00000024
  8.00200000,   0.80000551,   0.00000132,  -0.00001089,   0.00000013,  -0.00000021,  -0.00000001,   0.00022761,  -0.00010352,  -0.00001741,   0.00000721,   0.00000191,  -0.00000024
  8.00225000,   0.77500200,   0.00000057,   0.00000490,   0.00000006,   0.00000003,  -0.00000000,   0.00022136,  -0.00010092,  -0.00001695,   0.00000701,   0.00000187,  -0.00000023
  8.00250000,   0.75000080,  -0.00000000,  -0.00000786,  -0.00000000,  -0.00000014,  -0.00000000,   0.00021511,  -0.00009831,  -0.00001650,   0.00000681,   0.00000182,  -0.00000022
  8.00275000,   0.72499819,   0.00000001,   0.00000406,  -0.00000005,   0.00000004,   0.00000000,   0.00020886,  -0.00009569,  -0.00001604,   0.00000661,   0.00000178,  -0.00000022
  8.00300000,   0.69999808,  -0.00000037,   0.00001062,  -0.00000005,   0.00000014,   0.00000000,   0.00020261,  -0.00009308,  -0.00001559,   0.00000642,   0.00000174,  -0.00000021
  8.00325000,   0.67499850,   0.00000036,   0.00000312,  -0.00000004,   0.00000003,   0.00000000,   0.00019636,  -0.00009046,  -0.00001513,   0.00000622,   0.00000170,  -0.00000020
  8.00350000,   0.64999908,   0.00000019,   0.00000455,  -0.00000003,   0.00000005,   0.00000000,   0.00019011,  -0.00008784,  -0.00001468,   0.00000602,   0.00000165,  -0.00000020
  8.00375000,   0.62499802,  -0.00000025,  -0.00000704,  -0.00000007,  -0.00000011,  -0.00000001,   0.00018385,  -0.00008522,  -0.00001423,   0.00000583,   0.00000161,  -0.00000019
  8.00400000,   0.59999768,  -0.00000083,   0.00000015,  -0.00000007,  -0.00000000,  -0.00000001,   0.00017760,  -0.00008261,  -0.00001377,   0.00000563,   0.00000157,  -0.00000018
  8.00425000,   0.57499842,  -0.00000054,  -0.00000497,  -0.00000006,  -0.00000008,  -0.00000001,   0.00017134,  -0.00007998,  -0.00001332,   0.00000543,   0.00000153,  -0.00000018
  8.00450000,   0.55000117,   0.00000315,  -0.00005113,  -0.00000000,  -0.00000075,  -0.00000001,   0.00016509,  -0.00007736,  -0.00001287,   0.00000524,   0.00000148,  -0.00000017
  8.00475000,   0.52500088,   0.00000166,  -0.00000381,   0.00000003,  -0.00000008,   0.00000001,   0.00015883,  -0.00007474,  -0.00001241,   0.00000504,   0.00000144,  -0.00000016
  8.00500000,   0.49999955,   0.00000077,  -0.00000636,  -0.00000001,  -0.00000011,  -0.00000001,   0.00015257,  -0.00007212,  -0.00001196,   0.00000484,   0.00000140,  -0.00000016
  8.00525000,   0.47499902,   0.00000013,   0.00000744,  -0.00000001,   0.00000009,  -0.00000000,   0.00014631,  -0.00006949,  -0.00001150,   0.00000465,   0.00000135,  -0.00000015
  8.00550000,   0.44999916,   0.00000047,   0.00000280,  -0.00000002,   0.00000002,  -0.00000000,   0.00014005,  -0.00006687,  -0.00001105,   0.00000445,   0.00000131,  -0.00000014
  8.00575000,   0.42499788,   0.00000189,   0.00000589,  -0.00000002,   0.00000006,   0.00000000,   0.00013379,  -0.00006425,  -0.00001059,   0.00000425,   0.00000127,  -0.00000014
  8.00600000,   0.39999972,   0.00000102,  -0.00000568,  -0.00000002,  -0.00000010,   0.00000000,   0.00012753,  -0.00006162,  -0.00001014,   0.00000405,   0.00000123,  -0.00000013
  8.00625000,   0.37499965,   0.00000075,  -0.00000201,  -0.00000002,  -0.00000005,  -0.00000000,   0.00012127,  -0.00005900,  -0.00000968,   0.00000386,   0.00000118,  -0.00000012
  8.00650000,   0.34999977,   0.00000056,  -0.00000564,  -0.00000003,  -0.00000010,   0.00000000,   0.00011501,  -0.00005637,  -0.00000923,   0.00000366,   0.00000114,  -0.00000012
  8.00675000,   0.32499943,   0.00000042,   0.00000183,  -0.00000002,   0.00000001,  -0.00000000,   0.00010875,  -0.00005374,  -0.00000877,   0.00000346,   0.00000110,  -0.00000011
  8.00700000,   0.29999892,   0.00000029,   0.00001655,  -0.00000002,   0.00000022,   0.00000000,   0.00010248,  -0.00005112,  -0.00000832,   0.00000326,   0.00000106,  -0.00000011
  8.00725000,   0.27499978,   0.00000070,  -0.00000457,  -0.00000003,  -0.00000008,  -0.00000000,   0.00009622,  -0.00004849,  -0.00000787,   0.00000307,   0.00000101,  -0.00000010
  8.00750000,   0.24999942,   0.00000040,   0.00000375,  -0.00000003,   0.00000004,  -0.00000000,   0.00008996,  -0.00004586,  -0.00000741,   0.00000287,   0.00000097,  -0.00000009
  8.00775000,   0.22499951,   0.00000044,   0.00000251,  -0.00000002,   0.00000002,  -0.00000000,   0.00008369,  -0.00004323,  -0.00000696,   0.00000267,   0.00000093,  -0.00000009
  8.00800000,   0.19999967,   0.00000053,  -0.00000020,  -0.00000002,  -0.00000002,  -0.00000000,   0.00007743,  -0.00004060,  -0.00000650,   0.00000247,   0.00000089,  -0.00000008
  8.00825000,   0.17499970,   0.00000052,  -0.00000012,  -0.00000002,  -0.00000002,  -0.00000000,   0.00007116,  -0.00003797,  -0.00000605,   0.00000228,   0.00000084,  -0.00000007
  8.00850000,   0.14999983,   0.00000059,  -0.00000136,  -0.00000002,  -0.00000004,  -0.00000000,   0.00006490,  -0.00003535,  -0.00000559,   0.00000208,   0.00000080,  -0.00000007
  8.00875000,   0.12499967,   0.00000045,   0.00000233,  -0.00000002,   0.00000002,  -0.00000000,   0.00005863,  -0.00003272,  -0.00000514,   0.00000188,   0.00000076,  -0.00000006
  8.00900000,   0.09999980,   0.00000051,   0.00000034,  -0.00000002,  -0.00000001,  -0.00000000,   0.00005237,  -0.00003008,  -0.00000468,   0.00000168,   0.00000072,  -0.00000005
  8.00925000,   0.07499986,   0.00000055,  -0.00000053,  -0.00000002,  -0.00000003,  -0.00000000,   0.00004610,  -0.00002745,  -0.00000423,   0.00000149,   0.00000067,  -0.00000005
  8.00950000,   0.04999990,   0.00000053,  -0.00000033,  -0.00000002,  -0.00000002,  -0.00000000,   0.00003983,  -0.00002482,  -0.00000377,   0.00000129,   0.00000063,  -0.00000004
  8.00975000,   0.02499993,   0.00000052,  -0.00000011,  -0.00000002,  -0.00000002,  -0.00000000,   0.00003356,  -0.00002219,  -0.00000332,   0.00000109,   0.00000059,  -0.00000003
  8.01000000,   0.00000000,   0.00000055,  -0.00000084,  -0.00000002,  -0.00000003,  -0.00000000,   0.00002730,  -0.00001956,  -0.00000286,   0.00000089,   0.00000055,  -0.00000003
  8.14316670,   0.00000000,   0.00000055,  -0.00000080,  -0.00000002,  -0.00000003,  -0.00000000,   0.00002142,  -0.00001540,  -0.00000214,   0.00000071,   0.00000043,  -0.00000002
  8.27633330,   0.00000000,   0.00000055,  -0.00000078,  -0.00000002,  -0.00000003,  -0.00000000,   0.00001941,  -0.00001442,  -0.00000164,   0.00000064,   0.00000035,  -0.00000002
  8.40950000,   0.00000000,   0.00000055,  -0.00000084,  -0.00000002,  -0.00000003,  -0.00000000,   0.00001792,  -0.00001370,  -0.00000127,   0.00000058,   0.00000030,  -0.00000002
  8.54266670,   0.00000001,   0.00000055,  -0.00000094,  -0.00000002,  -0.00000003,  -0.00000000,   0.00001675,  -0.00001311,  -0.00000100,   0.00000054,   0.00000025,  -0.00000001
  8.67583330,   0.00000000,   0.00000055,  -0.00000086,  -0.00000002,  -0.00000003,  -0.00000000,   0.00001580,  -0.00001259,  -0.00000080,   0.00000050,   0.00000022,  -0.00000001
  8.80900000,  -0.00000000,   0.00000054,  -0.00000069,  -0.00000002,  -0.00000003,  -0.00000000,   0.00001500,  -0.00001212,  -0.00000066,   0.00000048,   0.00000019,  -0.00000001
  8.94216670,  -0.00000000,   0.00000054,  -0.00000079,  -0.00000002,  -0.00000003,  -0.00000000,   0.00001432,  -0.00001169,  -0.00000055,   0.00000045,   0.00000017,  -0.00000001
  9.07533330,   0.00000000,   0.00000055,  -0.00000081,  -0.00000002,  -0.00000003,  -0.00000000,   0.00001373,  -0.00001130,  -0.00000047,   0.00000043,   0.00000016,  -0.00000001
  9.20850000,   0.00000000,   0.00000055,  -0.00000088,  -0.00000002,  -0.00000003,  -0.00000000,   0.00001321,  -0.00001093,  -0.00000041,   0.00000041,   0.00000015,  -0.00000001
  9.34166670,   0.00000000,   0.00000055,  -0.00000084,  -0.00000002,  -0.00000003,  -0.00000000,   0.00001274,  -0.00001058,  -0.00000037,   0.00000040,   0.00000014,  -0.00000001
  9.47483330,   0.00000000,   0.00000055,  -0.00000086,  -0.00000002,  -0.00000003,  -0.00000000,   0.00001232,  -0.00001025,  -0.00000034,   0.00000038,   0.00000013,  -0.00000001
  9.60800000,   0.00000000,   0.00000055,  -0.00000082,  -0.00000002,  -0.00000003,  -0.00000000,   0.00001192,  -0.00000993,  -0.00000032,   0.00000037,   0.00000012,  -0.00000001
  9.74116670,   0.00000000,   0.00000055,  -0.00000085,  -0.00000002,  -0.00000003,  -0.00000000,   0.00001156,  -0.00000963,  -0.00000031,   0.00000036,   0.00000012,  -0.00000001
  9.87433330,  -0.00000000,   0.00000054,  -0.00000072,  -0.00000002,  -0.00000003,  -0.00000000,   0.00001122,  -0.00000935,  -0.00000030,   0.00000035,   0.00000012,  -0.00000001
 10.00750000,   0.00000000,   0.00000055,  -0.00000074,  -0.00000002,  -0.00000003,  -0.00000000,   0.00001090,  -0.00000907,  -0.00000029,   0.00000034,   0.00000011,  -0.00000001
 10.14066700,   0.00000000,   0.00000055,  -0.00000083,  -0.00000002,  -0.00000003,  -0.00000000,   0.00001059,  -0.00000881,  -0.00000029,   0.00000033,   0.00000011,  -0.00000001
 10.27383300,   0.00000000,   0.00000055,  -0.00000085,  -0.00000002,  -0.00000003,  -0.00000000,   0.00001030,  -0.00000855,  -0.00000028,   0.00000032,   0.00000011,  -0.00000001
 10.40700000,  -0.00000000,   0.00000055,  -0.00000081,  -0.00000002,  -0.00000003,  -0.00000000,   0.00001002,  -0.00000831,  -0.00000028,   0.00000031,   0.00000010,  -0.00000001
 10.54016700,  -0.00000000,   0.00000055,  -0.00000087,  -0.00000002,  -0.00000003,  -0.00000000,   0.00000975,  -0.00000807,  -0.00000028,   0.00000030,   0.00000010,  -0.00000001
 10.67333300,   0.00000000,   0.00000055,  -0.00000104,  -0.00000002,  -0.00000003,  -0.00000000,   0.00000949,  -0.00000784,  -0.00000028,   0.00000030,   0.00000010,  -0.00000001
 10.80650000,  -0.00000001,   0.00000054,  -0.00000080,  -0.00000002,  -0.00000003,  -0.00000000,   0.00000924,  -0.00000762,  -0.00000028,   0.00000029,   0.00000010,  -0.00000001
 10.93966700,  -0.00000001,   0.00000054,  -0.00000082,  -0.00000002,  -0.00000003,  -0.00000000,   0.00000901,  -0.00000741,  -0.00000028,   0.00000028,   0.00000010,  -0.00000001
 11.07283300,  -0.00000001,   0.00000054,  -0.00000082,  -0.00000002,  -0.00000003,  -0.00000000,   0.00000878,  -0.00000720,  -0.00000028,   0.00000027,   0.00000010,  -0.00000001
 11.20600000,  -0.00000001,   0.00000054,  -0.00000087,  -0.00000002,  -0.00000003,  -0.00000000,   0.00000855,  -0.00000700,  -0.00000029,   0.00000027,   0.00000009,  -0.00000001
 11.33916700,  -0.00000001,   0.00000054,  -0.00000080,  -0.00000002,  -0.00000003,  -0.00000000,   0.00000834,  -0.00000681,  -0.00000029,   0.00000026,   0.00000009,  -0.00000001
 11.47233300,  -0.00000001,   0.00000054,  -0.00000083,  -0.00000002,  -0.00000003,  -0.00000000,   0.00000813,  -0.00000662,  -0.00000029,   0.00000025,   0.00000009,  -0.00000001
 11.60550000,  -0.00000000,   0.00000055,  -0.00000087,  -0.00000002,  -0.00000003,  -0.00000000,   0.00000793,  -0.00000644,  -0.00000029,   0.00000025,   0.00000009,  -0.00000001
 11.73866700,   0.00000000,   0.00000055,  -0.00000083,  -0.00000002,  -0.00000003,  -0.00000000,   0.00000774,  -0.00000627,  -0.00000029,   0.00000024,   0.00000009,  -0.00000001
 11.87183300,   0.00000000,   0.00000055,  -0.00000082,  -0.00000002,  -0.00000003,  -0.00000000,   0.00000755,  -0.00000610,  -0.00000029,   0.00000024,   0.00000009,  -0.00000001
 12.00500000,   0.00000000,   0.00000055,  -0.00000087,  -0.00000002,  -0.00000003,  -0.00000000,   0.00000737,  -0.00000594,  -0.00000029,   0.00000023,   0.00000009,  -0.00000000
 12.13816700,   0.00000000,   0.00000055,  -0.00000084,  -0.00000002,  -0.00000003,  -0.00000000,   0.00000720,  -0.00000578,  -0.00000030,   0.00000022,   0.00000009,  -0.00000000
 12.27133300,   0.00000000,   0.00000055,  -0.00000083,  -0.00000002,  -0.00000003,  -0.00000000,   0.00000703,  -0.00000563,  -0.00000030,   0.00000022,   0.00000009,  -0.00000000
 12.40450000,   0.00000000,   0.00000055,  -0.00000085,  -0.00000002,  -0.00000003,  -0.00000000,   0.00000686,  -0.00000548,  -0.00000030,   0.00000021,   0.00000008,  -0.00000000
 12.53766700,  -0.00000000,   0.00000054,  -0.00000078,  -0.00000002,  -0.00000003,  -0.00000000,   0.00000671,  -0.00000534,  -0.00000030,   0.00000021,   0.00000008,  -0.00000000
 12.67083300,  -0.00000000,   0.00000054,  -0.00000084,  -0.00000002,  -0.00000003,  -0.00000000,   0.00000655,  -0.00000520,  -0.00000030,   0.00000021,   0.00000008,  -0.00000000
 12.80400000,  -0.00000000,   0.00000054,  -0.00000084,  -0.00000002,  -0.00000003,  -0.00000000,   0.00000641,  -0.00000507,  -0.00000030,   0.00000020,   0.00000008,  -0.00000000
 12.93716700,  -0.00000000,   0.00000054,  -0.00000075,  -0.00000002,  -0.00000003,  -0.00000000,   0.00000626,  -0.00000494,  -0.00000030,   0.00000020,   0.00000008,  -0.00000000
 13.07033300,  -0.00000000,   0.00000055,  -0.00000084,  -0.00000002,  -0.00000003,  -0.00000000,   0.00000613,  -0.00000482,  -0.00000030,   0.00000019,   0.00000008,  -0.00000000
 13.20350000,  -0.00000000,   0.00000054,  -0.00000085,  -0.00000002,  -0.00000003,  -0.00000000,   0.00000599,  -0.00000470,  -0.00000030,   0.00000019,   0.00000008,  -0.00000000
 13.33666700,  -0.00000000,   0.00000054,  -0.00000084,  -0.00000002,  -0.00000003,  -0.00000000,   0.00000586,  -0.00000458,  -0.00000030,   0.00000018,   0.00000008,  -0.00000000
 13.46983300,  -0.00000000,   0.00000054,  -0.00000081,  -0.00000002,  -0.00000003,  -0.00000000,   0.00000574,  -0.00000447,  -0.00000030,   0.00000018,   0.00000008,  -0.00000000
 13.60300000,  -0.00000000,   0.00000054,  -0.00000085,  -0.00000002,  -0.00000003,  -0.00000000,   0.00000562,  -0.00000436,  -0.00000031,   0.00000018,   0.00000008,  -0.00000000
 13.73616700,   0.00000000,   0.00000055,  -0.00000084,  -0.00000002,  -0.00000003,  -0.00000000,   0.00000550,  -0.00000425,  -0.00000031,   0.00000017,   0.00000008,  -0.00000000
 13.86933300,   0.00000000,   0.00000055,  -0.00000084,  -0.00000002,  -0.00000003,  -0.00000000,   0.00000539,  -0.00000415,  -0.00000031,   0.00000017,   0.00000008,  -0.00000000
 14.00250000,   0.00000000,   0.00000055,  -0.00000083,  -0.00000002,  -0.00000003,  -0.00000000,   0.00000528,  -0.00000405,  -0.00000031,   0.00000017,   0.00000007,  -0.00000000
 14.13566700,   0.00000000,   0.00000055,  -0.00000083,  -0.00000002,  -0.00000003,  -0.00000000,   0.00000517,  -0.00000396,  -0.00000031,   0.00000016,   0.00000007,  -0.00000000
 14.26883300,   0.00000000,   0.00000055,  -0.00000083,  -0.00000002,  -0.00000003,  -0.00000000,   0.00000507,  -0.00000387,  -0.00000031,   0.00000016,   0.00000007,  -0.00000000
 14.40200000,   0.00000000,   0.00000055,  -0.00000083,  -0.00000002,  -0.00000003,  -0.00000000,   0.00000497,  -0.00000378,  -0.00000031,   0.00000016,   0.00000007,  -0.00000000
 14.53516700,   0.00000000,   0.00000055,  -0.00000083,  -0.00000002,  -0.00000003,  -0.00000000,   0.00000487,  -0.00000369,  -0.00000031,   0.00000015,   0.00000007,  -0.00000000
 14.66833300,   0.00000000,   0.00000055,  -0.00000085,  -0.00000002,  -0.00000003,  -0.00000000,   0.00000478,  -0.00000361,  -0.00000031,   0.00000015,   0.00000007,  -0.00000000
 14.80150000,   0.00000000,   0.00000055,  -0.00000083,  -0.00000002,  -0.00000003,  -0.00000000,   0.00000469,  -0.00000353,  -0.00000031,   0.00000015,   0.00000007,  -0.00000000
 14.93466700,   0.00000000,   0.00000055,  -0.00000085,  -0.00000002,  -0.00000003,  -0.00000000,   0.00000460,  -0.00000345,  -0.00000031,   0.00000015,   0.00000007,  -0.00000000
 15.06783300,  -0.00000000,   0.00000054,  -0.00000084,  -0.00000002,  -0.00000003,  -0.00000000,   0.00000452,  -0.00000337,  -0.00000031,   0.00000014,   0.00000007,  -0.00000000
 15.20100000,  -0.00000000,   0.00000054,  -0.00000086,  -0.00000002,  -0.00000003,  -0.00000000,   0.00000444,  -0.00000330,  -0.00000031,   0.00000014,   0.00000007,  -0.00000000
 15.33416700,  -0.00000000,   0.00000054,  -0.00000084,  -0.00000002,  -0.00000003,  -0.00000000,   0.00000436,  -0.00000323,  -0.00000031,   0.00000014,   0.00000007,  -0.00000000
 15.46733300,  -0.00000000,   0.00000054,  -0.00000084,  -0.00000002,  -0.00000003,  -0.00000000,   0.00000428,  -0.00000316,  -0.00000031,   0.00000014,   0.00000007,  -0.00000000
 15.60050000,  -0.00000000,   0.00000054,  -0.00000083,  -0.00000002,  -0.00000003,  -0.00000000,   0.00000421,  -0.00000310,  -0.00000031,   0.00000013,   0.00000007,  -0.00000000
 15.73366700,  -0.00000000,   0.00000054,  -0.00000085,  -0.00000002,  -0.00000003,  -0.00000000,   0.00000414,  -0.00000303,  -0.00000031,   0.00000013,   0.00000007,  -0.00000000
 15.86683300,  -0.00000000,   0.00000054,  -0.00000086,  -0.00000002,  -0.00000003,  -0.00000000,   0.00000407,  -0.00000297,  -0.00000031,   0.00000013,   0.00000007,  -0.00000000
 16.00000000,  -0.00000000,   0.00000055,  -0.00000085,  -0.00000002,  -0.00000003,  -0.00000000,   0.00000400,  -0.00000291,  -0.00000031,   0.00000013,   0.00000007,  -0.00000000
