Time (m)    , Stress_xx (MPa), Stress_yy (MPa), Stress_zz (MPa), Stress_xy (MPa), Stress_xz (MPa), Stress_yz (MPa), Strain_xx   , Strain_yy   , Strain_zz   , Strain_xy   , Strain_xz   , Strain_yz   
  0.00000000,   0.00000000,   0.00000000,   0.00000000,   0.00000000,   0.00000000,   0.00000000,   0.00000000,   0.00000000,   0.00000000,   0.00000000,   0.00000000,   0.00000000
  0.00050000,  -0.00000022,   0.00000003,   0.05000138,   0.00000000,   0.00000002,  -0.00000000,  -0.00000052,  -0.00000073,   0.00000218,  -0.00000000,  -0.00000019,   0.00000001
  0.00100000,  -0.00000038,   0.00000019,   0.10000250,   0.00000000,   0.00000003,  -0.00000000,  -0.00000112,  -0.00000157,   0.00000452,  -0.00000000,  -0.00000041,   0.00000001
  0.00150000,  -0.00000001,   0.00000003,   0.15000333,   0.00000001,  -0.00000003,  -0.00000000,  -0.00000175,  -0.00000243,   0.00000690,  -0.00000001,  -0.00000064,   0.00000002
  0.00200000,   0.00000053,   0.00000017,   0.20000108,   0.00000000,   0.00000010,  -0.00000000,  -0.00000241,  -0.00000332,   0.00000931,  -0.00000001,  -0.00000088,   0.00000003
  0.00250000,  -0.00000066,   0.00000187,   0.25000011,  -0.00000001,   0.00000120,  -0.00000000,  -0.00000309,  -0.00000421,   0.00001174,  -0.00000001,  -0.00000112,   0.00000004
  0.00300000,  -0.00000185,   0.00000278,   0.29999952,  -0.00000000,   0.00000105,  -0.00000000,  -0.00000378,  -0.00000511,   0.00001419,  -0.00000001,  -0.00000136,   0.00000004
  0.00350000,  -0.00000047,   0.00000142,   0.34999877,  -0.00000000,   0.00000083,  -0.00000000,  -0.00000448,  -0.00000602,   0.00001665,  -0.00000002,  -0.00000160,   0.00000005
  0.00400000,  -0.00000052,   0.00000140,   0.39999856,  -0.00000000,   0.00000071,  -0.00000000,  -0.00000520,  -0.00000693,   0.00001912,  -0.00000002,  -0.00000184,   0.00000006
  0.00450000,  -0.00000020,   0.00000117,   0.44999750,  -0.00000000,   0.00000063,  -0.00000000,  -0.00000592,  -0.00000784,   0.00002161,  -0.00000002,  -0.00000209,   0.00000006
  0.00500000,  -0.00000035,   0.00000119,   0.49999803,  -0.00000000,   0.00000057,  -0.00000000,  -0.00000666,  -0.00000876,   0.00002410,  -0.00000002,  -0.00000233,   0.00000007
  0.00550000,  -0.00000004,   0.00000091,   0.54999765,  -0.00000000,   0.00000054,  -0.00000000,  -0.00000740,  -0.00000968,   0.00002660,  -0.00000003,  -0.00000258,   0.00000008
  0.00600000,  -0.00000020,   0.00000098,   0.59999789,  -0.00000000,   0.00000049,  -0.00000000,  -0.00000815,  -0.00001060,   0.00002910,  -0.00000003,  -0.00000283,   0.00000009
  0.00650000,   0.00000001,   0.00000077,   0.64999779,  -0.00000000,   0.00000046,  -0.00000000,  -0.00000891,  -0.00001153,   0.00003161,  -0.00000003,  -0.00000308,   0.00000009
  0.00700000,  -0.00000014,   0.00000086,   0.69999793,   0.00000000,   0.00000043,  -0.00000000,  -0.00000968,  -0.00001246,   0.00003413,  -0.00000003,  -0.00000333,   0.00000010
  0.00750000,   0.00000003,   0.00000067,   0.74999796,  -0.00000000,   0.00000040,  -0.00000000,  -0.00001046,  -0.00001339,   0.00003666,  -0.00000003,  -0.00000358,   0.00000011
  0.00800000,  -0.00000010,   0.00000075,   0.79999803,   0.00000000,   0.00000037,  -0.00000000,  -0.00001124,  -0.00001432,   0.00003919,  -0.00000004,  -0.00000384,   0.00000012
  0.00850000,   0.00000003,   0.00000059,   0.84999813,  -0.00000000,   0.00000036,  -0.00000000,  -0.00001202,  -0.00001525,   0.00004173,  -0.00000004,  -0.00000409,   0.00000012
  0.00900000,   0.00003107,  -0.00002055,   0.90000735,   0.00000001,   0.00000332,  -0.00000009,  -0.00001281,  -0.00001619,   0.00004427,  -0.00000004,  -0.00000434,   0.00000013
  0.00950000,   0.00000362,   0.00000108,   0.94997083,   0.00000002,   0.00000097,  -0.00000002,  -0.00001361,  -0.00001712,   0.00004681,  -0.00000004,  -0.00000460,   0.00000014
  0.01000000,  -0.00002134,   0.00002935,   0.99998127,   0.00000002,   0.00000198,   0.00000001,  -0.00001442,  -0.00001805,   0.00004936,  -0.00000005,  -0.00000485,   0.00000015
  0.07658333,  -0.00002769,   0.00002462,   1.00003020,  -0.00000006,   0.00000254,   0.00000002,  -0.00001770,  -0.00001991,   0.00005290,  -0.00000005,  -0.00000552,   0.00000015
  0.14316667,  -0.00002346,   0.00002761,   0.99998899,  -0.00000001,   0.00000211,   0.00000002,  -0.00001791,  -0.00002043,   0.00005341,  -0.00000005,  -0.00000566,   0.00000015
  0.20975000,  -0.00002238,   0.00002683,   0.99999276,  -0.00000000,   0.00000111,   0.00000003,  -0.00001797,  -0.00002068,   0.00005363,  -0.00000005,  -0.00000572,   0.00000016
  0.27633333,  -0.00002098,   0.00002677,   0.99997234,  -0.00000000,   0.00000142,   0.00000002,  -0.00001798,  -0.00002081,   0.00005374,  -0.00000005,  -0.00000575,   0.00000016
  0.34291667,  -0.00002138,   0.00002852,   0.99997288,  -0.00000000,   0.00000195,   0.00000002,  -0.00001799,  -0.00002087,   0.00005378,  -0.00000005,  -0.00000576,   0.00000016
  0.40950000,  -0.00001757,   0.00002491,   0.99997154,   0.00000001,  -0.00000026,   0.00000005,  -0.00001799,  -0.00002090,   0.00005381,  -0.00000005,  -0.00000577,   0.00000016
  0.47608333,  -0.00001922,   0.00002625,   0.99998824,   0.00000002,   0.00000052,   0.00000003,  -0.00001799,  -0.00002092,   0.00005382,  -0.00000005,  -0.00000578,   0.00000016
  0.54266667,  -0.00002020,   0.00002729,   0.99999788,   0.00000002,   0.00000127,   0.00000004,  -0.00001799,  -0.00002093,   0.00005383,  -0.00000005,  -0.00000578,   0.00000016
  0.60925000,  -0.00001849,   0.00002230,   1.00001810,   0.00000001,   0.00000093,   0.00000006,  -0.00001799,  -0.00002094,   0.00005384,  -0.00000005,  -0.00000578,   0.00000016
  0.67583333,  -0.00001815,   0.00002565,   0.99996447,   0.00000002,   0.00000084,   0.00000003,  -0.00001799,  -0.00002094,   0.00005384,  -0.00000005,  -0.00000578,   0.00000016
  0.74241667,  -0.00001919,   0.00002673,   0.99996979,   0.00000002,   0.00000139,  -0.00000002,  -0.00001800,  -0.00002095,   0.00005384,  -0.00000005,  -0.00000578,   0.00000016
  0.80900000,  -0.00002146,   0.00002747,   1.00001550,   0.00000002,   0.00000241,  -0.00000002,  -0.00001800,  -0.00002095,   0.00005385,  -0.00000005,  -0.00000578,   0.00000016
  0.87558333,  -0.00002093,   0.00002865,   0.99998672,   0.00000002,   0.00000226,  -0.00000004,  -0.00001800,  -0.00002095,   0.00005385,  -0.00000005,  -0.00000578,   0.00000016
  0.94216667,  -0.00002164,   0.00002888,   0.99999393,   0.00000002,   0.00000228,  -0.00000001,  -0.00001800,  -0.00002096,   0.00005385,  -0.00000005,  -0.00000578,   0.00000016
  1.00875000,  -0.00002126,   0.00002928,   0.99997866,   0.00000002,   0.00000194,   0.00000001,  -0.00001800,  -0.00002096,   0.00005386,  -0.00000005,  -0.00000578,   0.00000016
  1.07533330,  -0.00002092,   0.00002916,   0.99997176,   0.00000001,   0.00000173,   0.00000002,  -0.00001801,  -0.00002096,   0.00005386,  -0.00000005,  -0.00000579,   0.00000016
  1.14191670,  -0.00002147,   0.00002892,   0.99998881,   0.00000002,   0.00000203,   0.00000001,  -0.00001801,  -0.00002096,   0.00005386,  -0.00000005,  -0.00000579,   0.00000016
  1.20850000,  -0.00002156,   0.00002870,   0.99999498,   0.00000002,   0.00000216,   0.00000001,  -0.00001801,  -0.00002097,   0.00005387,  -0.00000005,  -0.00000579,   0.00000016
  1.27508330,  -0.00002102,   0.00002920,   0.99997582,   0.00000002,   0.00000191,   0.00000000,  -0.00001801,  -0.00002097,   0.00005387,  -0.00000005,  -0.00000579,   0.00000016
  1.34166670,  -0.00002129,   0.00002918,   0.99998202,   0.00000002,   0.00000199,   0.00000001,  -0.00001801,  -0.00002097,   0.00005387,  -0.00000005,  -0.00000579,   0.00000016
  1.40825000,  -0.00002013,   0.00003058,   0.99993273,   0.00000002,   0.00000128,   0.00000000,  -0.00001801,  -0.00002097,   0.00005388,  -0.00000005,  -0.00000579,   0.00000016
  1.47483330,  -0.00002121,   0.00002948,   0.99997416,   0.00000002,   0.00000187,   0.00000001,  -0.00001802,  -0.00002097,   0.00005388,  -0.00000005,  -0.00000579,   0.00000016
  1.54141670,  -0.00002281,   0.00002802,   1.00003070,   0.00000002,   0.00000267,   0.00000001,  -0.00001802,  -0.00002098,   0.00005389,  -0.00000005,  -0.00000579,   0.00000016
  1.60800000,  -0.00002108,   0.00002915,   0.99997855,   0.00000002,   0.00000194,   0.00000001,  -0.00001802,  -0.00002098,   0.00005389,  -0.00000005,  -0.00000579,   0.00000016
  1.67458330,  -0.00002025,   0.00002969,   0.99995350,  -0.00000000,   0.00000157,   0.00000001,  -0.00001802,  -0.00002098,   0.00005389,  -0.00000005,  -0.00000579,   0.00000016
  1.74116670,  -0.00002138,   0.00002915,   0.99998504,   0.00000002,   0.00000202,   0.00000001,  -0.00001803,  -0.00002098,   0.00005389,  -0.00000005,  -0.00000579,   0.00000016
  1.80775000,  -0.00002123,   0.00002933,   0.99997935,   0.00000002,   0.00000195,   0.00000001,  -0.00001803,  -0.00002098,   0.00005390,  -0.00000005,  -0.00000580,   0.00000016
  1.87433330,  -0.00002102,   0.00002942,   0.99997149,   0.00000002,   0.00000184,   0.00000001,  -0.00001803,  -0.00002098,   0.00005390,  -0.00000005,  -0.00000580,   0.00000016
  1.94091670,  -0.00002132,   0.00002929,   0.99998199,   0.00000002,   0.00000198,   0.00000001,  -0.00001803,  -0.00002098,   0.00005390,  -0.00000005,  -0.00000580,   0.00000016
  2.00750000,  -0.00001925,   0.00003077,   0.99990384,   0.00000002,   0.00000090,   0.00000001,  -0.00001803,  -0.00002098,   0.00005390,  -0.00000005,  -0.00000580,   0.00000016
  2.07408330,  -0.00002134,   0.00002940,   0.99998102,   0.00000001,   0.00000197,   0.00000001,  -0.00001804,  -0.00002099,   0.00005391,  -0.00000005,  -0.00000580,   0.00000016
  2.14066670,  -0.00002188,   0.00002886,   1.00000670,   0.00000001,   0.00000233,   0.00000002,  -0.00001804,  -0.00002099,   0.00005392,  -0.00000005,  -0.00000580,   0.00000016
  2.20725000,  -0.00002097,   0.00002940,   0.99997287,   0.00000002,   0.00000186,   0.00000001,  -0.00001804,  -0.00002099,   0.00005392,  -0.00000005,  -0.00000580,   0.00000016
  2.27383330,  -0.00002135,   0.00002927,   0.99998250,   0.00000002,   0.00000199,   0.00000001,  -0.00001805,  -0.00002099,   0.00005392,  -0.00000005,  -0.00000580,   0.00000016
  2.34041670,  -0.00002174,   0.00002902,   0.99999520,   0.00000002,   0.00000216,   0.00000001,  -0.00001805,  -0.00002099,   0.00005392,  -0.00000005,  -0.00000580,   0.00000016
  2.40700000,  -0.00002219,   0.00002873,   1.00001000,   0.00000002,   0.00000238,  -0.00000000,  -0.00001805,  -0.00002099,   0.00005393,  -0.00000005,  -0.00000580,   0.00000016
  2.47358330,  -0.00002400,   0.00002754,   1.00006540,   0.00000002,   0.00000317,   0.00000000,  -0.00001805,  -0.00002099,   0.00005393,  -0.00000005,  -0.00000580,   0.00000016
  2.54016670,  -0.00002107,   0.00002940,   0.99997436,   0.00000002,   0.00000188,  -0.00000000,  -0.00001806,  -0.00002099,   0.00005393,  -0.00000005,  -0.00000580,   0.00000016
  2.60675000,  -0.00002162,   0.00002919,   0.99999135,   0.00000002,   0.00000211,   0.00000000,  -0.00001806,  -0.00002099,   0.00005394,  -0.00000005,  -0.00000580,   0.00000016
  2.67333330,  -0.00002123,   0.00002939,   0.99997833,   0.00000002,   0.00000193,   0.00000001,  -0.00001806,  -0.00002099,   0.00005394,  -0.00000005,  -0.00000581,   0.00000016
  2.73991670,  -0.00002135,   0.00002931,   0.99998196,   0.00000002,   0.00000199,   0.00000001,  -0.00001806,  -0.00002100,   0.00005394,  -0.00000005,  -0.00000581,   0.00000016
  2.80650000,  -0.00002058,   0.00002989,   0.99995325,   0.00000002,   0.00000157,   0.00000000,  -0.00001807,  -0.00002100,   0.00005394,  -0.00000005,  -0.00000581,   0.00000016
  2.87308330,  -0.00001988,   0.00003024,   0.99992953,   0.00000002,   0.00000123,   0.00000001,  -0.00001807,  -0.00002100,   0.00005395,  -0.00000005,  -0.00000581,   0.00000016
  2.93966670,  -0.00002061,   0.00002980,   0.99995855,   0.00000002,   0.00000164,   0.00000000,  -0.00001807,  -0.00002100,   0.00005395,  -0.00000005,  -0.00000581,   0.00000016
  3.00625000,  -0.00002370,   0.00002794,   1.00006530,   0.00000002,   0.00000315,   0.00000001,  -0.00001807,  -0.00002100,   0.00005396,  -0.00000005,  -0.00000581,   0.00000016
  3.07283330,  -0.00002149,   0.00002923,   0.99998634,   0.00000002,   0.00000204,   0.00000000,  -0.00001808,  -0.00002100,   0.00005396,  -0.00000005,  -0.00000581,   0.00000016
  3.13941670,  -0.00002104,   0.00002954,   0.99997163,   0.00000002,   0.00000183,   0.00000001,  -0.00001808,  -0.00002100,   0.00005396,  -0.00000005,  -0.00000581,   0.00000016
  3.20600000,  -0.00002059,   0.00002977,   0.99995967,   0.00000001,   0.00000164,   0.00000001,  -0.00001808,  -0.00002100,   0.00005396,  -0.00000005,  -0.00000581,   0.00000016
  3.27258330,  -0.00002144,   0.00002924,   0.99998507,   0.00000002,   0.00000202,   0.00000001,  -0.00001808,  -0.00002100,   0.00005397,  -0.00000005,  -0.00000581,   0.00000016
  3.33916670,  -0.00002131,   0.00002934,   0.99998098,   0.00000002,   0.00000197,   0.00000001,  -0.00001809,  -0.00002100,   0.00005397,  -0.00000005,  -0.00000581,   0.00000016
  3.40575000,  -0.00002220,   0.00002888,   1.00000810,   0.00000002,   0.00000233,   0.00000000,  -0.00001809,  -0.00002101,   0.00005398,  -0.00000005,  -0.00000581,   0.00000016
  3.47233330,  -0.00002105,   0.00002955,   0.99997291,   0.00000002,   0.00000185,   0.00000001,  -0.00001809,  -0.00002101,   0.00005398,  -0.00000005,  -0.00000582,   0.00000016
  3.53891670,  -0.00002065,   0.00002975,   0.99995990,   0.00000002,   0.00000167,   0.00000001,  -0.00001809,  -0.00002101,   0.00005398,  -0.00000005,  -0.00000582,   0.00000016
  3.60550000,  -0.00001873,   0.00003086,   0.99990029,   0.00000002,   0.00000083,   0.00000002,  -0.00001809,  -0.00002101,   0.00005398,  -0.00000005,  -0.00000582,   0.00000016
  3.67208330,  -0.00002149,   0.00002921,   0.99998491,   0.00000002,   0.00000203,   0.00000001,  -0.00001810,  -0.00002101,   0.00005399,  -0.00000005,  -0.00000582,   0.00000016
  3.73866670,  -0.00002130,   0.00002937,   0.99998089,   0.00000002,   0.00000197,   0.00000001,  -0.00001810,  -0.00002101,   0.00005399,  -0.00000005,  -0.00000582,   0.00000016
  3.80525000,  -0.00002142,   0.00002932,   0.99998311,   0.00000002,   0.00000200,   0.00000001,  -0.00001810,  -0.00002101,   0.00005399,  -0.00000005,  -0.00000582,   0.00000016
  3.87183330,  -0.00002040,   0.00002996,   0.99995346,   0.00000002,   0.00000159,   0.00000002,  -0.00001811,  -0.00002101,   0.00005399,  -0.00000005,  -0.00000582,   0.00000016
  3.93841670,  -0.00002069,   0.00002970,   0.99995917,   0.00000002,   0.00000168,   0.00000000,  -0.00001811,  -0.00002101,   0.00005400,  -0.00000005,  -0.00000582,   0.00000016
  4.00500000,  -0.00001917,   0.00003054,   0.99990704,   0.00000002,   0.00000095,   0.00000001,  -0.00001811,  -0.00002101,   0.00005400,  -0.00000005,  -0.00000582,   0.00000016
  4.07158330,  -0.00002078,   0.00002968,   0.99996374,   0.00000002,   0.00000174,   0.00000001,  -0.00001811,  -0.00002101,   0.00005400,  -0.00000005,  -0.00000582,   0.00000016
  4.13816670,  -0.00002335,   0.00002826,   1.00005740,   0.00000001,   0.00000304,   0.00000003,  -0.00001812,  -0.00002101,   0.00005401,  -0.00000005,  -0.00000582,   0.00000016
  4.20475000,  -0.00002128,   0.00002937,   0.99998041,   0.00000002,   0.00000197,   0.00000001,  -0.00001812,  -0.00002101,   0.00005401,  -0.00000005,  -0.00000582,   0.00000016
  4.27133330,  -0.00002161,   0.00002919,   0.99998737,   0.00000002,   0.00000206,   0.00000001,  -0.00001812,  -0.00002101,   0.00005401,  -0.00000005,  -0.00000582,   0.00000016
  4.33791670,  -0.00002128,   0.00002937,   0.99997964,   0.00000002,   0.00000195,   0.00000001,  -0.00001812,  -0.00002102,   0.00005402,  -0.00000005,  -0.00000583,   0.00000016
  4.40450000,  -0.00002334,   0.00002820,   1.00004240,   0.00000002,   0.00000285,   0.00000000,  -0.00001813,  -0.00002102,   0.00005402,  -0.00000005,  -0.00000583,   0.00000016
  4.47108330,  -0.00002111,   0.00002950,   0.99997228,   0.00000002,   0.00000187,   0.00000001,  -0.00001813,  -0.00002102,   0.00005402,  -0.00000005,  -0.00000583,   0.00000016
  4.53766670,  -0.00002118,   0.00002948,   0.99997567,   0.00000001,   0.00000190,   0.00000001,  -0.00001813,  -0.00002102,   0.00005403,  -0.00000005,  -0.00000583,   0.00000016
  4.60425000,  -0.00002121,   0.00002945,   0.99998001,   0.00000002,   0.00000195,   0.00000002,  -0.00001813,  -0.00002102,   0.00005403,  -0.00000005,  -0.00000583,   0.00000016
  4.67083330,  -0.00002156,   0.00002925,   0.99999565,   0.00000001,   0.00000217,   0.00000003,  -0.00001814,  -0.00002102,   0.00005403,  -0.00000005,  -0.00000583,   0.00000016
  4.73741670,  -0.00002081,   0.00002962,   0.99996408,   0.00000002,   0.00000174,   0.00000001,  -0.00001814,  -0.00002102,   0.00005403,  -0.00000005,  -0.00000583,   0.00000016
  4.80400000,  -0.00002145,   0.00002927,   0.99998444,   0.00000002,   0.00000202,   0.00000001,  -0.00001814,  -0.00002102,   0.00005404,  -0.00000005,  -0.00000583,   0.00000016
  4.87058330,  -0.00002125,   0.00002939,   0.99997822,   0.00000002,   0.00000193,   0.00000001,  -0.00001815,  -0.00002102,   0.00005404,  -0.00000005,  -0.00000583,   0.00000016
  4.93716670,  -0.00002312,   0.00002836,   1.00004240,   0.00000001,   0.00000285,   0.00000001,  -0.00001815,  -0.00002102,   0.00005405,  -0.00000005,  -0.00000583,   0.00000016
  5.00375000,  -0.00002172,   0.00002912,   0.99999359,   0.00000002,   0.00000216,   0.00000000,  -0.00001815,  -0.00002102,   0.00005405,  -0.00000005,  -0.00000583,   0.00000016
  5.07033330,  -0.00001902,   0.00003066,   0.99989949,   0.00000002,   0.00000083,  -0.00000000,  -0.00001815,  -0.00002102,   0.00005405,  -0.00000005,  -0.00000583,   0.00000016
  5.13691670,  -0.00002058,   0.00002982,   0.99995825,   0.00000002,   0.00000166,   0.00000001,  -0.00001816,  -0.00002102,   0.00005405,  -0.00000005,  -0.00000583,   0.00000016
  5.20350000,  -0.00002095,   0.00002955,   0.99996989,   0.00000002,   0.00000182,   0.00000001,  -0.00001816,  -0.00002102,   0.00005406,  -0.00000005,  -0.00000584,   0.00000016
  5.27008330,  -0.00002069,   0.00002970,   0.99995976,   0.00000002,   0.00000167,   0.00000001,  -0.00001816,  -0.00002102,   0.00005406,  -0.00000005,  -0.00000584,   0.00000016
  5.33666670,  -0.00001986,   0.00003017,   0.99993057,   0.00000002,   0.00000124,   0.00000002,  -0.00001816,  -0.00002102,   0.00005406,  -0.00000005,  -0.00000584,   0.00000016
  5.40325000,  -0.00002306,   0.00002833,   1.00003700,   0.00000001,   0.00000274,   0.00000002,  -0.00001817,  -0.00002103,   0.00005407,  -0.00000005,  -0.00000584,   0.00000016
  5.46983330,  -0.00002185,   0.00002900,   0.99999896,   0.00000002,   0.00000221,   0.00000001,  -0.00001817,  -0.00002103,   0.00005407,  -0.00000005,  -0.00000584,   0.00000016
  5.53641670,  -0.00002258,   0.00002860,   1.00002110,   0.00000002,   0.00000253,   0.00000001,  -0.00001817,  -0.00002103,   0.00005407,  -0.00000005,  -0.00000584,   0.00000016
  5.60300000,  -0.00002166,   0.00002914,   0.99999170,   0.00000002,   0.00000212,   0.00000001,  -0.00001817,  -0.00002103,   0.00005408,  -0.00000005,  -0.00000584,   0.00000016
  5.66958330,  -0.00001989,   0.00003015,   0.99993291,   0.00000002,   0.00000129,   0.00000000,  -0.00001818,  -0.00002103,   0.00005408,  -0.00000005,  -0.00000584,   0.00000016
  5.73616670,  -0.00002012,   0.00003004,   0.99993993,   0.00000001,   0.00000140,  -0.00000001,  -0.00001818,  -0.00002103,   0.00005408,  -0.00000005,  -0.00000584,   0.00000016
  5.80275000,  -0.00002191,   0.00002901,   1.00000180,   0.00000002,   0.00000226,   0.00000001,  -0.00001818,  -0.00002103,   0.00005408,  -0.00000005,  -0.00000584,   0.00000016
  5.86933330,  -0.00002121,   0.00002941,   0.99997749,   0.00000002,   0.00000192,   0.00000001,  -0.00001818,  -0.00002103,   0.00005409,  -0.00000005,  -0.00000584,   0.00000016
  5.93591670,  -0.00002149,   0.00002927,   0.99998554,   0.00000002,   0.00000203,   0.00000001,  -0.00001819,  -0.00002103,   0.00005409,  -0.00000005,  -0.00000584,   0.00000016
  6.00250000,  -0.00001889,   0.00003075,   0.99989841,   0.00000002,   0.00000083,   0.00000000,  -0.00001819,  -0.00002103,   0.00005409,  -0.00000005,  -0.00000584,   0.00000016
  6.06908330,  -0.00002123,   0.00002942,   0.99997826,   0.00000002,   0.00000194,   0.00000002,  -0.00001819,  -0.00002103,   0.00005410,  -0.00000005,  -0.00000585,   0.00000016
  6.13566670,  -0.00002119,   0.00002942,   0.99997811,   0.00000002,   0.00000194,   0.00000001,  -0.00001819,  -0.00002103,   0.00005410,  -0.00000005,  -0.00000585,   0.00000016
  6.20225000,  -0.00002139,   0.00002931,   0.99998291,   0.00000002,   0.00000200,   0.00000001,  -0.00001820,  -0.00002103,   0.00005410,  -0.00000005,  -0.00000585,   0.00000016
  6.26883330,  -0.00001995,   0.00003016,   0.99993643,   0.00000002,   0.00000137,   0.00000001,  -0.00001820,  -0.00002103,   0.00005410,  -0.00000005,  -0.00000585,   0.00000016
  6.33541670,  -0.00001921,   0.00003060,   0.99991301,   0.00000001,   0.00000107,   0.00000003,  -0.00001820,  -0.00002103,   0.00005410,  -0.00000005,  -0.00000585,   0.00000016
  6.40200000,  -0.00002203,   0.00002893,   1.00000340,   0.00000002,   0.00000229,   0.00000001,  -0.00001821,  -0.00002104,   0.00005411,  -0.00000005,  -0.00000585,   0.00000016
  6.46858330,  -0.00002155,   0.00002922,   0.99998925,   0.00000002,   0.00000208,  -0.00000000,  -0.00001821,  -0.00002104,   0.00005411,  -0.00000005,  -0.00000585,   0.00000016
  6.53516670,  -0.00002162,   0.00002919,   0.99998895,   0.00000002,   0.00000207,   0.00000001,  -0.00001821,  -0.00002104,   0.00005412,  -0.00000005,  -0.00000585,   0.00000016
  6.60175000,  -0.00002224,   0.00002883,   1.00001120,   0.00000002,   0.00000240,   0.00000001,  -0.00001821,  -0.00002104,   0.00005412,  -0.00000005,  -0.00000585,   0.00000016
  6.66833330,  -0.00002169,   0.00002915,   0.99999431,   0.00000002,   0.00000218,   0.00000002,  -0.00001822,  -0.00002104,   0.00005412,  -0.00000005,  -0.00000585,   0.00000016
  6.73491670,  -0.00002153,   0.00002922,   0.99998682,   0.00000002,   0.00000205,   0.00000001,  -0.00001822,  -0.00002104,   0.00005413,  -0.00000005,  -0.00000585,   0.00000016
  6.80150000,  -0.00002141,   0.00002930,   0.99998387,   0.00000002,   0.00000201,   0.00000001,  -0.00001822,  -0.00002104,   0.00005413,  -0.00000005,  -0.00000585,   0.00000016
  6.86808330,  -0.00002156,   0.00002919,   0.99998281,   0.00000002,   0.00000200,   0.00000002,  -0.00001822,  -0.00002104,   0.00005413,  -0.00000005,  -0.00000585,   0.00000016
  6.93466670,  -0.00002170,   0.00002915,   0.99999199,   0.00000002,   0.00000214,   0.00000002,  -0.00001823,  -0.00002104,   0.00005413,  -0.00000005,  -0.00000586,   0.00000016
  7.00125000,  -0.00002362,   0.00002806,   1.00005850,   0.00000002,   0.00000310,   0.00000002,  -0.00001823,  -0.00002104,   0.00005414,  -0.00000005,  -0.00000586,   0.00000016
  7.06783330,  -0.00002150,   0.00002924,   0.99998492,   0.00000002,   0.00000203,   0.00000001,  -0.00001823,  -0.00002104,   0.00005414,  -0.00000005,  -0.00000586,   0.00000016
  7.13441670,  -0.00002106,   0.00002952,   0.99997243,   0.00000002,   0.00000184,   0.00000001,  -0.00001823,  -0.00002104,   0.00005414,  -0.00000005,  -0.00000586,   0.00000016
  7.20100000,  -0.00002152,   0.00002922,   0.99998716,   0.00000002,   0.00000205,   0.00000001,  -0.00001824,  -0.00002104,   0.00005415,  -0.00000005,  -0.00000586,   0.00000016
  7.26758330,  -0.00002160,   0.00002916,   0.99999021,   0.00000002,   0.00000210,   0.00000001,  -0.00001824,  -0.00002104,   0.00005415,  -0.00000005,  -0.00000586,   0.00000016
  7.33416670,  -0.00002216,   0.00002882,   1.00000760,   0.00000002,   0.00000234,   0.00000001,  -0.00001824,  -0.00002104,   0.00005415,  -0.00000005,  -0.00000586,   0.00000016
  7.40075000,  -0.00002122,   0.00002941,   0.99997769,   0.00000002,   0.00000192,   0.00000001,  -0.00001824,  -0.00002104,   0.00005415,  -0.00000005,  -0.00000586,   0.00000016
  7.46733330,  -0.00002142,   0.00002930,   0.99998339,   0.00000002,   0.00000200,   0.00000001,  -0.00001825,  -0.00002104,   0.00005416,  -0.00000005,  -0.00000586,   0.00000016
  7.53391670,  -0.00001981,   0.00003025,   0.99993046,   0.00000002,   0.00000127,   0.00000000,  -0.00001825,  -0.00002104,   0.00005416,  -0.00000005,  -0.00000586,   0.00000016
  7.60050000,  -0.00002095,   0.00002954,   0.99996658,   0.00000002,   0.00000175,   0.00000001,  -0.00001825,  -0.00002104,   0.00005416,  -0.00000005,  -0.00000586,   0.00000016
  7.66708330,  -0.00002095,   0.00002956,   0.99996942,   0.00000002,   0.00000181,   0.00000001,  -0.00001825,  -0.00002104,   0.00005417,  -0.00000005,  -0.00000586,   0.00000016
  7.73366670,  -0.00002142,   0.00002930,   0.99998396,   0.00000002,   0.00000201,   0.00000001,  -0.00001826,  -0.00002105,   0.00005417,  -0.00000005,  -0.00000586,   0.00000016
  7.80025000,  -0.00002164,   0.00002918,   0.99999186,   0.00000002,   0.00000213,   0.00000001,  -0.00001826,  -0.00002105,   0.00005417,  -0.00000005,  -0.00000586,   0.00000016
  7.86683330,  -0.00002247,   0.00002873,   1.00002050,   0.00000001,   0.00000254,   0.00000002,  -0.00001826,  -0.00002105,   0.00005418,  -0.00000005,  -0.00000587,   0.00000016
  7.93341670,  -0.00002131,   0.00002936,   0.99998030,   0.00000002,   0.00000196,   0.00000001,  -0.00001826,  -0.00002105,   0.00005418,  -0.00000005,  -0.00000587,   0.00000016
  8.00000000,  -0.00002139,   0.00002932,   0.99998245,   0.00000002,   0.00000199,   0.00000001,  -0.00001827,  -0.00002105,   0.00005418,  -0.00000005,  -0.00000587,   0.00000016
  8.00025000,  -0.00001741,   0.00002237,   0.97497776,   0.00000003,   0.00000186,  -0.00000000,  -0.00001803,  -0.00002072,   0.00005314,  -0.00000005,  -0.00000578,   0.00000015
  8.00050000,  -0.00004001,   0.00004295,   0.94998389,   0.00000012,  -0.00000486,   0.00000003,  -0.00001776,  -0.00002033,   0.00005201,  -0.00000005,  -0.00000568,   0.00000015
  8.00075000,  -0.00001467,   0.00001665,   0.92500608,   0.00000005,  -0.00000159,  -0.00000004,  -0.00001746,  -0.00001992,   0.00005085,  -0.00000005,  -0.00000557,   0.00000015
  8.00100000,  -0.00002836,   0.00003213,   0.90000118,   0.00000004,  -0.00000110,   0.00000001,  -0.00001716,  -0.00001949,   0.00004968,  -0.00000005,  -0.00000546,   0.00000014
  8.00125000,  -0.00002053,   0.00002633,   0.87499164,   0.00000002,   0.00000032,   0.00000001,  -0.00001685,  -0.00001906,   0.00004849,  -0.00000005,  -0.00000534,   0.00000014
  8.00150000,  -0.00002400,   0.00003011,   0.84999176,   0.00000002,   0.00000095,   0.00000001,  -0.00001653,  -0.00001862,   0.00004730,  -0.00000005,  -0.00000523,   0.00000014
  8.00175000,  -0.00002068,   0.00002720,   0.82499019,   0.00000001,   0.00000121,   0.00000001,  -0.00001620,  -0.00001818,   0.00004609,  -0.00000004,  -0.00000511,   0.00000013
  8.00200000,  -0.00002197,   0.00002879,   0.79998939,   0.00000002,   0.00000129,   0.00000001,  -0.00001587,  -0.00001774,   0.00004489,  -0.00000004,  -0.00000499,   0.00000013
  8.00225000,  -0.00002046,   0.00002737,   0.77498968,   0.00000002,   0.00000142,   0.00000001,  -0.00001554,  -0.00001729,   0.00004367,  -0.00000004,  -0.00000487,   0.00000013
  8.00250000,  -0.00002136,   0.00002845,   0.74998944,   0.00000002,   0.00000147,   0.00000001,  -0.00001520,  -0.00001684,   0.00004245,  -0.00000004,  -0.00000475,   0.00000012
  8.00275000,  -0.00004522,   0.00004342,   0.72498630,   0.00000000,  -0.00000168,   0.00000008,  -0.00001486,  -0.00001639,   0.00004123,  -0.00000004,  -0.00000463,   0.00000012
  8.00300000,  -0.00002312,   0.00002454,   0.70002435,  -0.00000000,   0.00000011,   0.00000003,  -0.00001451,  -0.00001594,   0.00004001,  -0.00000004,  -0.00000451,   0.00000011
  8.00325000,  -0.00002344,   0.00003053,   0.67499217,   0.00000001,   0.00000128,   0.00000001,  -0.00001416,  -0.00001549,   0.00003878,  -0.00000004,  -0.00000439,   0.00000011
  8.00350000,  -0.00005950,   0.00005650,   0.65000856,   0.00000001,   0.00000116,   0.00000005,  -0.00001381,  -0.00001503,   0.00003755,  -0.00000004,  -0.00000427,   0.00000011
  8.00375000,  -0.00002479,   0.00002932,   0.62500720,   0.00000000,   0.00000131,   0.00000002,  -0.00001345,  -0.00001458,   0.00003631,  -0.00000003,  -0.00000415,   0.00000010
  8.00400000,  -0.00002377,   0.00002981,   0.60000053,   0.00000001,   0.00000145,   0.00000002,  -0.00001309,  -0.00001412,   0.00003507,  -0.00000003,  -0.00000403,   0.00000010
  8.00425000,  -0.00004361,   0.00004206,   0.57500810,  -0.00000001,  -0.00000049,   0.00000008,  -0.00001273,  -0.00001366,   0.00003384,  -0.00000003,  -0.00000391,   0.00000010
  8.00450000,  -0.00002153,   0.00002479,   0.55001643,  -0.00000002,   0.00000076,   0.00000002,  -0.00001237,  -0.00001321,   0.00003259,  -0.00000003,  -0.00000378,   0.00000009
  8.00475000,  -0.00002270,   0.00002907,   0.52499966,   0.00000001,   0.00000143,   0.00000001,  -0.00001200,  -0.00001275,   0.00003135,  -0.00000003,  -0.00000366,   0.00000009
  8.00500000,  -0.00002200,   0.00002911,   0.49999503,   0.00000003,   0.00000174,   0.00000001,  -0.00001163,  -0.00001229,   0.00003010,  -0.00000003,  -0.00000354,   0.00000009
  8.00525000,  -0.00003758,   0.00004057,   0.47498956,   0.00000008,   0.00000070,   0.00000003,  -0.00001126,  -0.00001183,   0.00002885,  -0.00000003,  -0.00000341,   0.00000008
  8.00550000,  -0.00002367,   0.00002861,   0.45000891,   0.00000006,   0.00000130,   0.00000002,  -0.00001089,  -0.00001137,   0.00002761,  -0.00000003,  -0.00000329,   0.00000008
  8.00575000,  -0.00002258,   0.00002986,   0.42499586,   0.00000003,   0.00000170,   0.00000001,  -0.00001051,  -0.00001091,   0.00002635,  -0.00000003,  -0.00000316,   0.00000007
  8.00600000,  -0.00002186,   0.00002899,   0.39999677,   0.00000002,   0.00000181,   0.00000001,  -0.00001014,  -0.00001045,   0.00002510,  -0.00000002,  -0.00000304,   0.00000007
  8.00625000,  -0.00003359,   0.00003702,   0.37499259,  -0.00000001,   0.00000059,   0.00000004,  -0.00000976,  -0.00000999,   0.00002384,  -0.00000002,  -0.00000291,   0.00000007
  8.00650000,  -0.00002324,   0.00002744,   0.35001545,  -0.00000001,   0.00000133,   0.00000002,  -0.00000938,  -0.00000952,   0.00002259,  -0.00000002,  -0.00000279,   0.00000006
  8.00675000,  -0.00002232,   0.00002989,   0.32499586,   0.00000001,   0.00000170,   0.00000001,  -0.00000899,  -0.00000906,   0.00002133,  -0.00000002,  -0.00000266,   0.00000006
  8.00700000,  -0.00002199,   0.00002919,   0.29999814,   0.00000002,   0.00000185,   0.00000001,  -0.00000861,  -0.00000860,   0.00002007,  -0.00000002,  -0.00000254,   0.00000006
  8.00725000,  -0.00002131,   0.00002896,   0.27499592,   0.00000002,   0.00000182,   0.00000001,  -0.00000822,  -0.00000813,   0.00001880,  -0.00000002,  -0.00000241,   0.00000005
  8.00750000,  -0.00002115,   0.00002876,   0.24999673,   0.00000002,   0.00000183,   0.00000001,  -0.00000784,  -0.00000767,   0.00001754,  -0.00000002,  -0.00000229,   0.00000005
  8.00775000,  -0.00002121,   0.00002876,   0.22499751,   0.00000002,   0.00000181,   0.00000001,  -0.00000745,  -0.00000720,   0.00001628,  -0.00000002,  -0.00000216,   0.00000005
  8.00800000,  -0.00002115,   0.00002870,   0.19999795,   0.00000001,   0.00000182,   0.00000001,  -0.00000706,  -0.00000674,   0.00001501,  -0.00000001,  -0.00000203,   0.00000004
  8.00825000,  -0.00002122,   0.00002881,   0.17499818,   0.00000001,   0.00000183,   0.00000001,  -0.00000666,  -0.00000627,   0.00001374,  -0.00000001,  -0.00000191,   0.00000004
  8.00850000,  -0.00002119,   0.00002877,   0.14999876,   0.00000001,   0.00000183,   0.00000001,  -0.00000627,  -0.00000580,   0.00001247,  -0.00000001,  -0.00000178,   0.00000003
  8.00875000,  -0.00002124,   0.00002885,   0.12499901,   0.00000002,   0.00000183,   0.00000001,  -0.00000587,  -0.00000534,   0.00001120,  -0.00000001,  -0.00000165,   0.00000003
  8.00900000,  -0.00002152,   0.00002935,   0.09999858,   0.00000002,   0.00000198,   0.00000001,  -0.00000548,  -0.00000487,   0.00000993,  -0.00000001,  -0.00000153,   0.00000003
  8.00925000,  -0.00002126,   0.00002921,   0.07499858,   0.00000002,   0.00000199,   0.00000001,  -0.00000508,  -0.00000440,   0.00000866,  -0.00000001,  -0.00000140,   0.00000002
  8.00950000,  -0.00002132,   0.00002928,   0.04999896,   0.00000002,   0.00000199,   0.00000001,  -0.00000468,  -0.00000393,   0.00000739,  -0.00000001,  -0.00000127,   0.00000002
  8.00975000,  -0.00002139,   0.00002930,   0.02499972,   0.00000002,   0.00000199,   0.00000001,  -0.00000428,  -0.00000347,   0.00000611,  -0.00000001,  -0.00000115,   0.00000002
  8.01000000,  -0.00002139,   0.00002932,   0.00000003,   0.00000002,   0.00000199,   0.00000001,  -0.00000388,  -0.00000300,   0.00000484,  -0.00000001,  -0.00000102,   0.00000001
  8.14316670,  -0.00002139,   0.00002932,   0.00000002,   0.00000002,   0.00000199,   0.00000001,  -0.00000042,  -0.00000069,   0.00000085,  -0.00000000,  -0.00000023,   0.00000000
  8.27633330,  -0.00002139,   0.00002932,   0.00000003,   0.00000002,   0.00000199,   0.00000001,  -0.00000032,  -0.00000030,   0.00000051,  -0.00000000,  -0.00000014,   0.00000000
  8.40950000,  -0.00002139,   0.00002932,   0.00000003,   0.00000002,   0.00000199,   0.00000001,  -0.00000030,  -0.00000017,   0.00000041,  -0.00000000,  -0.00000011,   0.00000000
  8.54266670,  -0.00002139,   0.00002932,   0.00000003,   0.00000002,   0.00000199,   0.00000001,  -0.00000030,  -0.00000012,   0.00000038,  -0.00000000,  -0.00000010,   0.00000000
  8.67583330,  -0.00002139,   0.00002932,   0.00000003,   0.00000002,   0.00000199,   0.00000001,  -0.00000031,  -0.00000010,   0.00000037,  -0.00000000,  -0.00000009,   0.00000000
  8.80900000,  -0.00002139,   0.00002932,   0.00000003,   0.00000002,   0.00000199,   0.00000001,  -0.00000031,  -0.00000010,   0.00000037,  -0.00000000,  -0.00000009,   0.00000000
  8.94216670,  -0.00002139,   0.00002932,   0.00000003,   0.00000002,   0.00000199,   0.00000001,  -0.00000031,  -0.00000009,   0.00000037,  -0.00000000,  -0.00000009,   0.00000000
  9.07533330,  -0.00002139,   0.00002932,   0.00000003,   0.00000002,   0.00000199,   0.00000001,  -0.00000031,  -0.00000008,   0.00000037,  -0.00000000,  -0.00000009,   0.00000000
  9.20850000,  -0.00002139,   0.00002932,   0.00000003,   0.00000002,   0.00000199,   0.00000001,  -0.00000031,  -0.00000008,   0.00000036,  -0.00000000,  -0.00000009,   0.00000000
  9.34166670,  -0.00002139,   0.00002932,   0.00000003,   0.00000002,   0.00000199,   0.00000001,  -0.00000031,  -0.00000008,   0.00000036,  -0.00000000,  -0.00000009,   0.00000000
  9.47483330,  -0.00002139,   0.00002932,   0.00000003,   0.00000002,   0.00000199,   0.00000001,  -0.00000031,  -0.00000008,   0.00000036,  -0.00000000,  -0.00000009,   0.00000000
  9.60800000,  -0.00002139,   0.00002932,   0.00000003,   0.00000002,   0.00000199,   0.00000001,  -0.00000032,  -0.00000007,   0.00000036,  -0.00000000,  -0.00000009,   0.00000000
  9.74116670,  -0.00002139,   0.00002932,   0.00000003,   0.00000002,   0.00000199,   0.00000001,  -0.00000032,  -0.00000007,   0.00000036,  -0.00000000,  -0.00000009,   0.00000000
  9.87433330,  -0.00002139,   0.00002932,   0.00000003,   0.00000002,   0.00000199,   0.00000001,  -0.00000032,  -0.00000007,   0.00000036,  -0.00000000,  -0.00000009,   0.00000000
 10.00750000,  -0.00002139,   0.00002932,   0.00000003,   0.00000002,   0.00000199,   0.00000001,  -0.00000032,  -0.00000007,   0.00000036,  -0.00000000,  -0.00000009,   0.00000000
 10.14066700,  -0.00002139,   0.00002932,   0.00000003,   0.00000002,   0.00000199,   0.00000001,  -0.00000032,  -0.00000007,   0.00000036,  -0.00000000,  -0.00000009,   0.00000000
 10.27383300,  -0.00002139,   0.00002932,   0.00000003,   0.00000002,   0.00000199,   0.00000001,  -0.00000032,  -0.00000006,   0.00000036,  -0.00000000,  -0.00000009,   0.00000000
 10.40700000,  -0.00002139,   0.00002932,   0.00000003,   0.00000002,   0.00000199,   0.00000001,  -0.00000032,  -0.00000006,   0.00000036,  -0.00000000,  -0.00000009,   0.00000000
 10.54016700,  -0.00002139,   0.00002932,   0.00000003,   0.00000002,   0.00000199,   0.00000001,  -0.00000032,  -0.00000006,   0.00000035,  -0.00000000,  -0.00000009,   0.00000000
 10.67333300,  -0.00002139,   0.00002932,   0.00000003,   0.00000002,   0.00000199,   0.00000001,  -0.00000032,  -0.00000006,   0.00000035,  -0.00000000,  -0.00000009,   0.00000000
 10.80650000,  -0.00002139,   0.00002932,   0.00000003,   0.00000002,   0.00000199,   0.00000001,  -0.00000032,  -0.00000006,   0.00000035,  -0.00000000,  -0.00000009,   0.00000000
 10.93966700,  -0.00002139,   0.00002932,   0.00000003,   0.00000002,   0.00000199,   0.00000001,  -0.00000032,  -0.00000006,   0.00000035,  -0.00000000,  -0.00000009,   0.00000000
 11.07283300,  -0.00002139,   0.00002932,   0.00000003,   0.00000002,   0.00000199,   0.00000001,  -0.00000032,  -0.00000006,   0.00000035,  -0.00000000,  -0.00000009,   0.00000000
 11.20600000,  -0.00002139,   0.00002932,   0.00000003,   0.00000002,   0.00000199,   0.00000001,  -0.00000032,  -0.00000006,   0.00000035,  -0.00000000,  -0.00000009,   0.00000000
 11.33916700,  -0.00002139,   0.00002932,   0.00000003,   0.00000002,   0.00000199,   0.00000001,  -0.00000032,  -0.00000005,   0.00000035,  -0.00000000,  -0.00000009,   0.00000000
 11.47233300,  -0.00002139,   0.00002932,   0.00000003,   0.00000002,   0.00000199,   0.00000001,  -0.00000032,  -0.00000005,   0.00000035,  -0.00000000,  -0.00000009,   0.00000000
 11.60550000,  -0.00002139,   0.00002932,   0.00000003,   0.00000002,   0.00000199,   0.00000001,  -0.00000032,  -0.00000005,   0.00000035,  -0.00000000,  -0.00000009,   0.00000000
 11.73866700,  -0.00002139,   0.00002932,   0.00000003,   0.00000002,   0.00000199,   0.00000001,  -0.00000032,  -0.00000005,   0.00000035,  -0.00000000,  -0.00000009,   0.00000000
 11.87183300,  -0.00002139,   0.00002932,   0.00000003,   0.00000002,   0.00000199,   0.00000001,  -0.00000032,  -0.00000005,   0.00000035,  -0.00000000,  -0.00000009,   0.00000000
 12.00500000,  -0.00002139,   0.00002932,   0.00000003,   0.00000002,   0.00000199,   0.00000001,  -0.00000032,  -0.00000005,   0.00000034,  -0.00000000,  -0.00000009,   0.00000000
 12.13816700,  -0.00002139,   0.00002932,   0.00000003,   0.00000002,   0.00000199,   0.00000001,  -0.00000032,  -0.00000005,   0.00000034,  -0.00000000,  -0.00000009,   0.00000000
 12.27133300,  -0.00002139,   0.00002932,   0.00000003,   0.00000002,   0.00000199,   0.00000001,  -0.00000032,  -0.00000005,   0.00000034,  -0.00000000,  -0.00000009,   0.00000000
 12.40450000,  -0.00002139,   0.00002932,   0.00000003,   0.00000002,   0.00000199,   0.00000001,  -0.00000032,  -0.00000005,   0.00000034,  -0.00000000,  -0.00000009,   0.00000000
 12.53766700,  -0.00002139,   0.00002932,   0.00000003,   0.00000002,   0.00000199,   0.00000001,  -0.00000032,  -0.00000005,   0.00000034,  -0.00000000,  -0.00000009,   0.00000000
 12.67083300,  -0.00002139,   0.00002932,   0.00000003,   0.00000002,   0.00000199,   0.00000001,  -0.00000032,  -0.00000005,   0.00000034,  -0.00000000,  -0.00000009,   0.00000000
 12.80400000,  -0.00002139,   0.00002932,   0.00000003,   0.00000002,   0.00000199,   0.00000001,  -0.00000032,  -0.00000004,   0.00000034,  -0.00000000,  -0.00000009,   0.00000000
 12.93716700,  -0.00002139,   0.00002932,   0.00000003,   0.00000002,   0.00000199,   0.00000001,  -0.00000032,  -0.00000004,   0.00000034,  -0.00000000,  -0.00000009,   0.00000000
 13.07033300,  -0.00002139,   0.00002932,   0.00000003,   0.00000002,   0.00000199,   0.00000001,  -0.00000032,  -0.00000004,   0.00000034,  -0.00000000,  -0.00000009,   0.00000000
 13.20350000,  -0.00002139,   0.00002932,   0.00000003,   0.00000002,   0.00000199,   0.00000001,  -0.00000032,  -0.00000004,   0.00000034,  -0.00000000,  -0.00000009,   0.00000000
 13.33666700,  -0.00002139,   0.00002932,   0.00000003,   0.00000002,   0.00000199,   0.00000001,  -0.00000032,  -0.00000004,   0.00000034,  -0.00000000,  -0.00000009,   0.00000000
 13.46983300,  -0.00002139,   0.00002932,   0.00000003,   0.00000002,   0.00000199,   0.00000001,  -0.00000032,  -0.00000004,   0.00000034,  -0.00000000,  -0.00000009,   0.00000000
 13.60300000,  -0.00002139,   0.00002932,   0.00000003,   0.00000002,   0.00000199,   0.00000001,  -0.00000032,  -0.00000004,   0.00000033,  -0.00000000,  -0.00000008,   0.00000000
 13.73616700,  -0.00002139,   0.00002932,   0.00000003,   0.00000002,   0.00000199,   0.00000001,  -0.00000031,  -0.00000004,   0.00000033,  -0.00000000,  -0.00000008,   0.00000000
 13.86933300,  -0.00002139,   0.00002932,   0.00000003,   0.00000002,   0.00000199,   0.00000001,  -0.00000031,  -0.00000004,   0.00000033,  -0.00000000,  -0.00000008,   0.00000000
 14.00250000,  -0.00002139,   0.00002932,   0.00000003,   0.00000002,   0.00000199,   0.00000001,  -0.00000031,  -0.00000004,   0.00000033,  -0.00000000,  -0.00000008,   0.00000000
 14.13566700,  -0.00002139,   0.00002932,   0.00000003,   0.00000002,   0.00000199,   0.00000001,  -0.00000031,  -0.00000004,   0.00000033,  -0.00000000,  -0.00000008,   0.00000000
 14.26883300,  -0.00002139,   0.00002932,   0.00000003,   0.00000002,   0.00000199,   0.00000001,  -0.00000031,  -0.00000004,   0.00000033,  -0.00000000,  -0.00000008,   0.00000000
 14.40200000,  -0.00002139,   0.00002932,   0.00000003,   0.00000002,   0.00000199,   0.00000001,  -0.00000031,  -0.00000004,   0.00000033,  -0.00000000,  -0.00000008,   0.00000000
 14.53516700,  -0.00002139,   0.00002932,   0.00000003,   0.00000002,   0.00000199,   0.00000001,  -0.00000031,  -0.00000004,   0.00000033,  -0.00000000,  -0.00000008,   0.00000000
 14.66833300,  -0.00002139,   0.00002932,   0.00000003,   0.00000002,   0.00000199,   0.00000001,  -0.00000031,  -0.00000004,   0.00000033,  -0.00000000,  -0.00000008,   0.00000000
 14.80150000,  -0.00002139,   0.00002932,   0.00000003,   0.00000002,   0.00000199,   0.00000001,  -0.00000031,  -0.00000004,   0.00000033,  -0.00000000,  -0.00000008,   0.00000000
 14.93466700,  -0.00002139,   0.00002932,   0.00000003,   0.00000002,   0.00000199,   0.00000001,  -0.00000031,  -0.00000003,   0.00000033,  -0.00000000,  -0.00000008,   0.00000000
 15.06783300,  -0.00002139,   0.00002932,   0.00000003,   0.00000002,   0.00000199,   0.00000001,  -0.00000031,  -0.00000003,   0.00000033,  -0.00000000,  -0.00000008,   0.00000000
 15.20100000,  -0.00002139,   0.00002932,   0.00000003,   0.00000002,   0.00000199,   0.00000001,  -0.00000031,  -0.00000003,   0.00000033,  -0.00000000,  -0.00000008,   0.00000000
 15.33416700,  -0.00002139,   0.00002932,   0.00000003,   0.00000002,   0.00000199,   0.00000001,  -0.00000031,  -0.00000003,   0.00000032,  -0.00000000,  -0.00000008,   0.00000000
 15.46733300,  -0.00002139,   0.00002932,   0.00000003,   0.00000002,   0.00000199,   0.00000001,  -0.00000031,  -0.00000003,   0.00000032,  -0.00000000,  -0.00000008,   0.00000000
 15.60050000,  -0.00002139,   0.00002932,   0.00000003,   0.00000002,   0.00000199,   0.00000001,  -0.00000031,  -0.00000003,   0.00000032,  -0.00000000,  -0.00000008,   0.00000000
 15.73366700,  -0.00002139,   0.00002932,   0.00000003,   0.00000002,   0.00000199,   0.00000001,  -0.00000031,  -0.00000003,   0.00000032,  -0.00000000,  -0.00000008,   0.00000000
 15.86683300,  -0.00002139,   0.00002932,   0.00000003,   0.00000002,   0.00000199,   0.00000001,  -0.00000031,  -0.00000003,   0.00000032,  -0.00000000,  -0.00000008,   0.00000000
 16.00000000,  -0.00002139,   0.00002932,   0.00000003,   0.00000002,   0.00000199,   0.00000001,  -0.00000031,  -0.00000003,   0.00000032,  -0.00000000,  -0.00000008,   0.00000000
