Time (m)    , Stress_xx (MPa), Stress_yy (MPa), Stress_zz (MPa), Stress_xy (MPa), Stress_xz (MPa), Stress_yz (MPa), Strain_xx   , Strain_yy   , Strain_zz   , Strain_xy   , Strain_xz   , Strain_yz   
  0.00000000,   0.00000000,   0.00000000,   0.00000000,   0.00000000,   0.00000000,   0.00000000,   0.00000000,   0.00000000,   0.00000000,   0.00000000,   0.00000000,   0.00000000
  0.00050000,   0.00000011,   0.00000009,   0.04999741,   0.00000000,  -0.00000006,   0.00000000,  -0.00000087,  -0.00000100,   0.00000266,  -0.00000001,  -0.00000024,  -0.00000002
  0.00100000,   0.00000041,   0.00000035,   0.10000160,   0.00000001,  -0.00000008,   0.00000001,  -0.00000178,  -0.00000204,   0.00000538,  -0.00000001,  -0.00000050,  -0.00000004
  0.00150000,   0.00000044,   0.00000063,   0.15000129,   0.00000002,   0.00000008,   0.00000001,  -0.00000270,  -0.00000310,   0.00000811,  -0.00000002,  -0.00000076,  -0.00000006
  0.00200000,  -0.00000096,   0.00000306,   0.19999873,   0.00000002,   0.00000096,  -0.00000001,  -0.00000361,  -0.00000416,   0.00001084,  -0.00000002,  -0.00000102,  -0.00000008
  0.00250000,   0.00000015,   0.00000127,   0.25000094,   0.00000002,   0.00000021,   0.00000001,  -0.00000453,  -0.00000523,   0.00001358,  -0.00000003,  -0.00000128,  -0.00000010
  0.00300000,   0.00000040,   0.00000075,   0.30000046,   0.00000002,   0.00000002,   0.00000001,  -0.00000544,  -0.00000630,   0.00001632,  -0.00000004,  -0.00000154,  -0.00000012
  0.00350000,   0.00000026,   0.00000052,   0.35000046,   0.00000001,   0.00000002,   0.00000000,  -0.00000636,  -0.00000737,   0.00001905,  -0.00000004,  -0.00000180,  -0.00000014
  0.00400000,  -0.00000053,  -0.00000107,   0.40003142,   0.00000001,   0.00000027,   0.00000000,  -0.00000728,  -0.00000844,   0.00002179,  -0.00000005,  -0.00000206,  -0.00000016
  0.00450000,   0.00000016,  -0.00000005,   0.45000039,  -0.00000000,  -0.00000008,   0.00000001,  -0.00000819,  -0.00000951,   0.00002453,  -0.00000005,  -0.00000232,  -0.00000018
  0.00500000,  -0.00000016,  -0.00000004,   0.50000058,  -0.00000000,   0.00000003,   0.00000000,  -0.00000911,  -0.00001058,   0.00002727,  -0.00000006,  -0.00000258,  -0.00000020
  0.00550000,  -0.00000061,  -0.00000088,   0.55001854,  -0.00000001,   0.00000006,   0.00000001,  -0.00001002,  -0.00001165,   0.00003001,  -0.00000007,  -0.00000284,  -0.00000022
  0.00600000,  -0.00000013,  -0.00000027,   0.59999861,  -0.00000001,  -0.00000006,   0.00000000,  -0.00001094,  -0.00001272,   0.00003275,  -0.00000007,  -0.00000310,  -0.00000024
  0.00650000,  -0.00000027,  -0.00000023,   0.65000065,  -0.00000001,   0.00000004,  -0.00000000,  -0.00001185,  -0.00001379,   0.00003549,  -0.00000008,  -0.00000336,  -0.00000026
  0.00700000,  -0.00000025,  -0.00000042,   0.70000421,  -0.00000001,  -0.00000009,   0.00000001,  -0.00001277,  -0.00001486,   0.00003823,  -0.00000009,  -0.00000362,  -0.00000028
  0.00750000,  -0.00000001,  -0.00000011,   0.74999725,  -0.00000000,  -0.00000007,   0.00000000,  -0.00001369,  -0.00001593,   0.00004097,  -0.00000009,  -0.00000389,  -0.00000030
  0.00800000,  -0.00000014,  -0.00000012,   0.80000123,  -0.00000000,   0.00000005,   0.00000000,  -0.00001460,  -0.00001700,   0.00004371,  -0.00000010,  -0.00000415,  -0.00000032
  0.00850000,   0.00000036,   0.00000019,   0.84999194,  -0.00000000,  -0.00000028,   0.00000001,  -0.00001552,  -0.00001807,   0.00004645,  -0.00000010,  -0.00000441,  -0.00000034
  0.00900000,  -0.00000001,  -0.00000002,   0.90000103,   0.00000000,  -0.00000002,   0.00000000,  -0.00001643,  -0.00001914,   0.00004919,  -0.00000011,  -0.00000467,  -0.00000036
  0.00950000,   0.00000137,   0.00000101,   0.94996854,  -0.00000001,  -0.00000063,   0.00000001,  -0.00001735,  -0.00002021,   0.00005193,  -0.00000012,  -0.00000493,  -0.00000038
  0.01000000,   0.00000125,   0.00000083,   0.99997183,   0.00000001,  -0.00000050,  -0.00000000,  -0.00001827,  -0.00002129,   0.00005467,  -0.00000012,  -0.00000519,  -0.00000040
  0.07658333,   0.00000195,   0.00000077,   0.99996503,   0.00000010,  -0.00000121,   0.00000002,  -0.00001868,  -0.00002151,   0.00005522,  -0.00000012,  -0.00000533,  -0.00000041
  0.14316667,  -0.00000047,  -0.00000131,   0.99996804,  -0.00000005,  -0.00000069,  -0.00000004,  -0.00001902,  -0.00002155,   0.00005558,  -0.00000013,  -0.00000541,  -0.00000041
  0.20975000,  -0.00000097,  -0.00000162,   0.99996720,  -0.00000011,  -0.00000068,  -0.00000004,  -0.00001931,  -0.00002158,   0.00005588,  -0.00000013,  -0.00000549,  -0.00000042
  0.27633333,  -0.00000853,   0.00000363,   0.99998571,  -0.00000018,  -0.00000622,  -0.00000001,  -0.00001957,  -0.00002160,   0.00005614,  -0.00000013,  -0.00000556,  -0.00000042
  0.34291667,  -0.00000063,  -0.00000077,   0.99997536,  -0.00000011,  -0.00000080,  -0.00000003,  -0.00001978,  -0.00002162,   0.00005636,  -0.00000013,  -0.00000561,  -0.00000042
  0.40950000,  -0.00000512,   0.00000400,   0.99998828,  -0.00000008,  -0.00000340,  -0.00000000,  -0.00001996,  -0.00002164,   0.00005654,  -0.00000013,  -0.00000566,  -0.00000042
  0.47608333,  -0.00000548,   0.00000558,   0.99999670,  -0.00000004,  -0.00000532,  -0.00000002,  -0.00002011,  -0.00002165,   0.00005670,  -0.00000013,  -0.00000571,  -0.00000042
  0.54266667,  -0.00000070,   0.00000450,   0.99996094,   0.00000000,  -0.00000318,  -0.00000005,  -0.00002024,  -0.00002166,   0.00005684,  -0.00000013,  -0.00000574,  -0.00000043
  0.60925000,  -0.00000215,   0.00000501,   0.99998900,   0.00000000,  -0.00000311,  -0.00000003,  -0.00002035,  -0.00002167,   0.00005695,  -0.00000013,  -0.00000577,  -0.00000043
  0.67583333,  -0.00000268,   0.00000439,   1.00000570,   0.00000001,  -0.00000327,  -0.00000003,  -0.00002045,  -0.00002169,   0.00005706,  -0.00000013,  -0.00000580,  -0.00000043
  0.74241667,   0.00000058,   0.00000315,   0.99997054,   0.00000001,  -0.00000158,  -0.00000003,  -0.00002053,  -0.00002169,   0.00005714,  -0.00000013,  -0.00000583,  -0.00000043
  0.80900000,  -0.00000047,   0.00000320,   0.99997720,   0.00000000,  -0.00000175,  -0.00000002,  -0.00002060,  -0.00002170,   0.00005721,  -0.00000013,  -0.00000585,  -0.00000043
  0.87558333,  -0.00000108,   0.00000295,   0.99998010,  -0.00000001,  -0.00000231,  -0.00000000,  -0.00002065,  -0.00002171,   0.00005727,  -0.00000013,  -0.00000587,  -0.00000043
  0.94216667,  -0.00000146,   0.00000200,   0.99999222,  -0.00000001,  -0.00000222,   0.00000000,  -0.00002070,  -0.00002172,   0.00005733,  -0.00000013,  -0.00000589,  -0.00000043
  1.00875000,   0.00000041,   0.00000134,   0.99997010,  -0.00000001,  -0.00000109,  -0.00000001,  -0.00002074,  -0.00002173,   0.00005738,  -0.00000013,  -0.00000590,  -0.00000043
  1.07533330,  -0.00000009,   0.00000142,   0.99997592,  -0.00000001,  -0.00000107,  -0.00000001,  -0.00002078,  -0.00002174,   0.00005742,  -0.00000013,  -0.00000591,  -0.00000043
  1.14191670,  -0.00000044,   0.00000130,   0.99998365,  -0.00000002,  -0.00000129,  -0.00000001,  -0.00002081,  -0.00002174,   0.00005745,  -0.00000013,  -0.00000593,  -0.00000043
  1.20850000,   0.00000075,   0.00000110,   0.99997088,  -0.00000001,  -0.00000089,  -0.00000001,  -0.00002084,  -0.00002175,   0.00005748,  -0.00000013,  -0.00000594,  -0.00000043
  1.27508330,   0.00000094,   0.00000100,   0.99997207,  -0.00000001,  -0.00000068,  -0.00000001,  -0.00002086,  -0.00002176,   0.00005751,  -0.00000013,  -0.00000595,  -0.00000043
  1.34166670,   0.00000066,   0.00000128,   0.99997390,  -0.00000001,  -0.00000096,  -0.00000000,  -0.00002088,  -0.00002176,   0.00005753,  -0.00000013,  -0.00000596,  -0.00000043
  1.40825000,   0.00000048,   0.00000117,   0.99998005,  -0.00000000,  -0.00000099,  -0.00000000,  -0.00002089,  -0.00002177,   0.00005756,  -0.00000013,  -0.00000597,  -0.00000043
  1.47483330,   0.00000119,   0.00000112,   0.99997121,   0.00000000,  -0.00000069,  -0.00000001,  -0.00002091,  -0.00002177,   0.00005757,  -0.00000013,  -0.00000598,  -0.00000043
  1.54141670,   0.00000122,   0.00000104,   0.99997155,   0.00000000,  -0.00000059,  -0.00000001,  -0.00002092,  -0.00002178,   0.00005759,  -0.00000013,  -0.00000598,  -0.00000044
  1.60800000,   0.00000099,   0.00000112,   0.99997284,   0.00000000,  -0.00000074,  -0.00000000,  -0.00002093,  -0.00002178,   0.00005761,  -0.00000013,  -0.00000599,  -0.00000044
  1.67458330,   0.00000083,   0.00000104,   0.99997556,   0.00000000,  -0.00000080,  -0.00000000,  -0.00002094,  -0.00002179,   0.00005762,  -0.00000013,  -0.00000600,  -0.00000044
  1.74116670,   0.00000117,   0.00000096,   0.99997106,   0.00000000,  -0.00000061,  -0.00000000,  -0.00002095,  -0.00002179,   0.00005763,  -0.00000013,  -0.00000600,  -0.00000044
  1.80775000,   0.00000359,   0.00000146,   0.99990870,   0.00000000,  -0.00000109,  -0.00000001,  -0.00002095,  -0.00002180,   0.00005764,  -0.00000013,  -0.00000601,  -0.00000044
  1.87433330,   0.00000122,   0.00000080,   0.99996893,   0.00000001,  -0.00000050,  -0.00000001,  -0.00002096,  -0.00002180,   0.00005765,  -0.00000013,  -0.00000602,  -0.00000044
  1.94091670,   0.00000110,   0.00000089,   0.99997159,   0.00000000,  -0.00000059,  -0.00000000,  -0.00002097,  -0.00002181,   0.00005766,  -0.00000013,  -0.00000602,  -0.00000044
  2.00750000,   0.00000368,   0.00000160,   0.99990338,   0.00000002,  -0.00000109,  -0.00000003,  -0.00002097,  -0.00002181,   0.00005767,  -0.00000013,  -0.00000603,  -0.00000044
  2.07408330,   0.00000103,   0.00000069,   0.99997651,   0.00000000,  -0.00000036,  -0.00000001,  -0.00002097,  -0.00002181,   0.00005768,  -0.00000013,  -0.00000603,  -0.00000044
  2.14066670,   0.00000121,   0.00000092,   0.99997004,   0.00000001,  -0.00000061,  -0.00000000,  -0.00002098,  -0.00002182,   0.00005769,  -0.00000013,  -0.00000604,  -0.00000044
  2.20725000,   0.00000119,   0.00000034,   0.99997664,   0.00000001,  -0.00000003,  -0.00000002,  -0.00002098,  -0.00002182,   0.00005770,  -0.00000013,  -0.00000604,  -0.00000044
  2.27383330,   0.00000116,   0.00000078,   0.99997424,   0.00000001,  -0.00000041,  -0.00000000,  -0.00002098,  -0.00002183,   0.00005771,  -0.00000013,  -0.00000605,  -0.00000044
  2.34041670,   0.00000131,   0.00000094,   0.99996900,   0.00000001,  -0.00000060,   0.00000000,  -0.00002099,  -0.00002183,   0.00005771,  -0.00000013,  -0.00000605,  -0.00000044
  2.40700000,   0.00000073,   0.00000029,   0.99999043,   0.00000001,   0.00000005,  -0.00000001,  -0.00002099,  -0.00002184,   0.00005772,  -0.00000013,  -0.00000606,  -0.00000044
  2.47358330,   0.00000130,   0.00000087,   0.99997112,   0.00000001,  -0.00000046,  -0.00000000,  -0.00002099,  -0.00002184,   0.00005773,  -0.00000013,  -0.00000606,  -0.00000044
  2.54016670,  -0.00000134,  -0.00000099,   1.00005340,   0.00000002,   0.00000092,  -0.00000001,  -0.00002100,  -0.00002185,   0.00005774,  -0.00000013,  -0.00000606,  -0.00000044
  2.60675000,   0.00000076,   0.00000047,   0.99998721,   0.00000000,  -0.00000024,  -0.00000000,  -0.00002100,  -0.00002185,   0.00005774,  -0.00000013,  -0.00000607,  -0.00000044
  2.67333330,   0.00000119,   0.00000082,   0.99997408,   0.00000001,  -0.00000050,   0.00000000,  -0.00002100,  -0.00002185,   0.00005775,  -0.00000013,  -0.00000607,  -0.00000044
  2.73991670,   0.00000121,   0.00000082,   0.99997354,   0.00000001,  -0.00000051,   0.00000000,  -0.00002100,  -0.00002186,   0.00005775,  -0.00000013,  -0.00000608,  -0.00000044
  2.80650000,   0.00000168,   0.00000110,   0.99995878,   0.00000000,  -0.00000056,  -0.00000000,  -0.00002100,  -0.00002186,   0.00005776,  -0.00000013,  -0.00000608,  -0.00000044
  2.87308330,   0.00000120,   0.00000080,   0.99997347,   0.00000000,  -0.00000046,  -0.00000000,  -0.00002101,  -0.00002186,   0.00005776,  -0.00000013,  -0.00000608,  -0.00000044
  2.93966670,   0.00000395,   0.00000260,   0.99988999,   0.00000001,  -0.00000152,   0.00000001,  -0.00002101,  -0.00002187,   0.00005777,  -0.00000013,  -0.00000609,  -0.00000044
  3.00625000,   0.00000178,   0.00000119,   0.99995306,   0.00000001,  -0.00000067,  -0.00000001,  -0.00002101,  -0.00002187,   0.00005777,  -0.00000013,  -0.00000609,  -0.00000044
  3.07283330,   0.00000142,   0.00000092,   0.99996656,   0.00000001,  -0.00000060,   0.00000000,  -0.00002101,  -0.00002187,   0.00005778,  -0.00000013,  -0.00000609,  -0.00000044
  3.13941670,   0.00000135,   0.00000089,   0.99996880,   0.00000000,  -0.00000056,   0.00000000,  -0.00002101,  -0.00002188,   0.00005779,  -0.00000013,  -0.00000610,  -0.00000044
  3.20600000,   0.00000121,   0.00000080,   0.99997116,   0.00000001,  -0.00000046,  -0.00000000,  -0.00002101,  -0.00002188,   0.00005779,  -0.00000013,  -0.00000610,  -0.00000044
  3.27258330,   0.00000116,   0.00000078,   0.99997410,   0.00000001,  -0.00000045,  -0.00000000,  -0.00002102,  -0.00002189,   0.00005780,  -0.00000013,  -0.00000611,  -0.00000044
  3.33916670,   0.00000218,   0.00000137,   0.99994081,   0.00000002,  -0.00000098,  -0.00000001,  -0.00002102,  -0.00002189,   0.00005780,  -0.00000013,  -0.00000611,  -0.00000044
  3.40575000,   0.00000104,   0.00000071,   0.99997707,   0.00000001,  -0.00000040,  -0.00000000,  -0.00002102,  -0.00002189,   0.00005781,  -0.00000013,  -0.00000611,  -0.00000044
  3.47233330,   0.00000130,   0.00000086,   0.99997031,   0.00000001,  -0.00000054,   0.00000000,  -0.00002102,  -0.00002190,   0.00005781,  -0.00000013,  -0.00000612,  -0.00000044
  3.53891670,  -0.00000009,   0.00000006,   1.00000860,   0.00000000,   0.00000016,  -0.00000000,  -0.00002102,  -0.00002190,   0.00005782,  -0.00000013,  -0.00000612,  -0.00000044
  3.60550000,   0.00000132,   0.00000088,   0.99996935,   0.00000001,  -0.00000053,  -0.00000000,  -0.00002103,  -0.00002190,   0.00005783,  -0.00000013,  -0.00000612,  -0.00000044
  3.67208330,   0.00000123,   0.00000082,   0.99997238,   0.00000001,  -0.00000051,   0.00000000,  -0.00002103,  -0.00002191,   0.00005783,  -0.00000013,  -0.00000612,  -0.00000044
  3.73866670,   0.00000181,   0.00000125,   0.99995288,   0.00000001,  -0.00000072,  -0.00000000,  -0.00002103,  -0.00002191,   0.00005784,  -0.00000013,  -0.00000613,  -0.00000044
  3.80525000,   0.00000117,   0.00000079,   0.99997400,   0.00000000,  -0.00000045,  -0.00000000,  -0.00002103,  -0.00002191,   0.00005784,  -0.00000013,  -0.00000613,  -0.00000044
  3.87183330,   0.00000128,   0.00000084,   0.99997116,   0.00000000,  -0.00000053,   0.00000000,  -0.00002103,  -0.00002192,   0.00005785,  -0.00000013,  -0.00000613,  -0.00000044
  3.93841670,   0.00000067,   0.00000054,   0.99998735,   0.00000000,  -0.00000018,  -0.00000000,  -0.00002104,  -0.00002192,   0.00005785,  -0.00000013,  -0.00000614,  -0.00000044
  4.00500000,   0.00000130,   0.00000087,   0.99997038,   0.00000000,  -0.00000051,  -0.00000000,  -0.00002104,  -0.00002192,   0.00005786,  -0.00000013,  -0.00000614,  -0.00000044
  4.07158330,  -0.00000173,  -0.00000093,   1.00005850,  -0.00000000,   0.00000090,  -0.00000000,  -0.00002104,  -0.00002193,   0.00005787,  -0.00000013,  -0.00000614,  -0.00000044
  4.13816670,   0.00000085,   0.00000056,   0.99998325,   0.00000000,  -0.00000029,   0.00000000,  -0.00002104,  -0.00002193,   0.00005787,  -0.00000013,  -0.00000615,  -0.00000044
  4.20475000,   0.00000111,   0.00000073,   0.99997630,   0.00000000,  -0.00000045,   0.00000000,  -0.00002104,  -0.00002193,   0.00005787,  -0.00000013,  -0.00000615,  -0.00000044
  4.27133330,   0.00000120,   0.00000080,   0.99997345,   0.00000000,  -0.00000049,  -0.00000000,  -0.00002105,  -0.00002193,   0.00005788,  -0.00000013,  -0.00000615,  -0.00000044
  4.33791670,   0.00000106,   0.00000073,   0.99997637,   0.00000000,  -0.00000039,  -0.00000000,  -0.00002105,  -0.00002194,   0.00005788,  -0.00000013,  -0.00000615,  -0.00000044
  4.40450000,   0.00000133,   0.00000088,   0.99996946,   0.00000000,  -0.00000053,  -0.00000000,  -0.00002105,  -0.00002194,   0.00005789,  -0.00000013,  -0.00000616,  -0.00000044
  4.47108330,  -0.00000020,  -0.00000012,   1.00001380,   0.00000000,   0.00000017,  -0.00000000,  -0.00002105,  -0.00002194,   0.00005790,  -0.00000013,  -0.00000616,  -0.00000044
  4.53766670,   0.00000134,   0.00000089,   0.99996874,   0.00000000,  -0.00000054,   0.00000000,  -0.00002105,  -0.00002195,   0.00005790,  -0.00000013,  -0.00000616,  -0.00000044
  4.60425000,   0.00000123,   0.00000081,   0.99997265,   0.00000001,  -0.00000050,  -0.00000000,  -0.00002106,  -0.00002195,   0.00005790,  -0.00000013,  -0.00000617,  -0.00000044
  4.67083330,   0.00000197,   0.00000132,   0.99994840,   0.00000000,  -0.00000079,   0.00000000,  -0.00002106,  -0.00002195,   0.00005791,  -0.00000013,  -0.00000617,  -0.00000044
  4.73741670,   0.00000117,   0.00000078,   0.99997407,   0.00000001,  -0.00000046,  -0.00000000,  -0.00002106,  -0.00002195,   0.00005792,  -0.00000013,  -0.00000617,  -0.00000044
  4.80400000,   0.00000127,   0.00000084,   0.99997132,   0.00000001,  -0.00000052,  -0.00000000,  -0.00002106,  -0.00002196,   0.00005792,  -0.00000013,  -0.00000617,  -0.00000044
  4.87058330,   0.00000073,   0.00000052,   0.99998646,   0.00000000,  -0.00000022,  -0.00000000,  -0.00002106,  -0.00002196,   0.00005793,  -0.00000013,  -0.00000618,  -0.00000044
  4.93716670,   0.00000068,   0.00000048,   0.99998821,   0.00000001,  -0.00000024,  -0.00000000,  -0.00002107,  -0.00002196,   0.00005793,  -0.00000013,  -0.00000618,  -0.00000044
  5.00375000,   0.00000081,   0.00000053,   0.99998465,   0.00000000,  -0.00000033,   0.00000000,  -0.00002107,  -0.00002197,   0.00005794,  -0.00000013,  -0.00000618,  -0.00000044
  5.07033330,   0.00000270,   0.00000191,   0.99992785,   0.00000001,  -0.00000107,  -0.00000000,  -0.00002107,  -0.00002197,   0.00005794,  -0.00000013,  -0.00000618,  -0.00000044
  5.13691670,   0.00000121,   0.00000082,   0.99997307,   0.00000001,  -0.00000047,  -0.00000000,  -0.00002107,  -0.00002197,   0.00005795,  -0.00000013,  -0.00000619,  -0.00000044
  5.20350000,   0.00000047,   0.00000033,   0.99999406,   0.00000000,  -0.00000020,   0.00000001,  -0.00002108,  -0.00002197,   0.00005795,  -0.00000013,  -0.00000619,  -0.00000044
  5.27008330,   0.00000128,   0.00000085,   0.99997114,   0.00000001,  -0.00000052,   0.00000000,  -0.00002108,  -0.00002198,   0.00005796,  -0.00000013,  -0.00000619,  -0.00000044
  5.33666670,   0.00000123,   0.00000082,   0.99997251,   0.00000001,  -0.00000049,  -0.00000000,  -0.00002108,  -0.00002198,   0.00005796,  -0.00000013,  -0.00000619,  -0.00000044
  5.40325000,   0.00000155,   0.00000109,   0.99996175,   0.00000001,  -0.00000062,   0.00000000,  -0.00002108,  -0.00002198,   0.00005797,  -0.00000013,  -0.00000620,  -0.00000044
  5.46983330,   0.00000122,   0.00000081,   0.99997280,   0.00000001,  -0.00000048,  -0.00000000,  -0.00002108,  -0.00002198,   0.00005797,  -0.00000013,  -0.00000620,  -0.00000044
  5.53641670,   0.00000307,   0.00000215,   0.99991494,   0.00000001,  -0.00000128,   0.00000001,  -0.00002109,  -0.00002198,   0.00005797,  -0.00000013,  -0.00000620,  -0.00000044
  5.60300000,   0.00000124,   0.00000083,   0.99997212,   0.00000001,  -0.00000049,  -0.00000000,  -0.00002109,  -0.00002199,   0.00005798,  -0.00000013,  -0.00000620,  -0.00000044
  5.66958330,   0.00000127,   0.00000083,   0.99997164,   0.00000001,  -0.00000051,   0.00000000,  -0.00002109,  -0.00002199,   0.00005799,  -0.00000013,  -0.00000621,  -0.00000044
  5.73616670,   0.00000113,   0.00000081,   0.99997443,   0.00000001,  -0.00000041,  -0.00000000,  -0.00002109,  -0.00002199,   0.00005799,  -0.00000013,  -0.00000621,  -0.00000044
  5.80275000,   0.00000217,   0.00000139,   0.99994552,   0.00000000,  -0.00000093,   0.00000000,  -0.00002109,  -0.00002199,   0.00005799,  -0.00000013,  -0.00000621,  -0.00000044
  5.86933330,   0.00000114,   0.00000076,   0.99997552,   0.00000000,  -0.00000047,  -0.00000000,  -0.00002110,  -0.00002200,   0.00005800,  -0.00000013,  -0.00000621,  -0.00000044
  5.93591670,   0.00000129,   0.00000085,   0.99997073,   0.00000001,  -0.00000052,   0.00000000,  -0.00002110,  -0.00002200,   0.00005801,  -0.00000013,  -0.00000621,  -0.00000044
  6.00250000,   0.00000034,   0.00000029,   0.99999963,   0.00000000,  -0.00000008,  -0.00000001,  -0.00002110,  -0.00002200,   0.00005801,  -0.00000013,  -0.00000622,  -0.00000045
  6.06908330,   0.00000130,   0.00000086,   0.99997061,   0.00000000,  -0.00000052,  -0.00000000,  -0.00002110,  -0.00002200,   0.00005802,  -0.00000013,  -0.00000622,  -0.00000045
  6.13566670,   0.00000143,   0.00000093,   0.99996638,   0.00000000,  -0.00000060,   0.00000000,  -0.00002111,  -0.00002201,   0.00005802,  -0.00000013,  -0.00000622,  -0.00000045
  6.20225000,  -0.00000027,  -0.00000005,   1.00001740,   0.00000001,   0.00000022,  -0.00000001,  -0.00002111,  -0.00002201,   0.00005803,  -0.00000013,  -0.00000622,  -0.00000045
  6.26883330,   0.00000137,   0.00000091,   0.99996847,   0.00000000,  -0.00000054,  -0.00000000,  -0.00002111,  -0.00002201,   0.00005803,  -0.00000013,  -0.00000623,  -0.00000045
  6.33541670,   0.00000119,   0.00000079,   0.99997340,   0.00000000,  -0.00000048,  -0.00000000,  -0.00002111,  -0.00002201,   0.00005803,  -0.00000013,  -0.00000623,  -0.00000045
  6.40200000,   0.00000229,   0.00000155,   0.99994090,   0.00000000,  -0.00000093,  -0.00000001,  -0.00002112,  -0.00002202,   0.00005804,  -0.00000013,  -0.00000623,  -0.00000045
  6.46858330,   0.00000116,   0.00000078,   0.99997455,   0.00000000,  -0.00000045,  -0.00000000,  -0.00002112,  -0.00002202,   0.00005804,  -0.00000013,  -0.00000623,  -0.00000045
  6.53516670,   0.00000109,   0.00000072,   0.99997626,   0.00000001,  -0.00000044,   0.00000000,  -0.00002112,  -0.00002202,   0.00005805,  -0.00000013,  -0.00000623,  -0.00000045
  6.60175000,   0.00000232,   0.00000152,   0.99994167,   0.00000000,  -0.00000093,  -0.00000001,  -0.00002112,  -0.00002202,   0.00005805,  -0.00000013,  -0.00000624,  -0.00000045
  6.66833330,   0.00000110,   0.00000074,   0.99997658,   0.00000000,  -0.00000042,  -0.00000000,  -0.00002113,  -0.00002202,   0.00005806,  -0.00000013,  -0.00000624,  -0.00000045
  6.73491670,   0.00000131,   0.00000086,   0.99996992,   0.00000000,  -0.00000054,  -0.00000000,  -0.00002113,  -0.00002203,   0.00005806,  -0.00000013,  -0.00000624,  -0.00000045
  6.80150000,  -0.00000007,   0.00000003,   1.00001240,   0.00000000,   0.00000014,  -0.00000001,  -0.00002113,  -0.00002203,   0.00005807,  -0.00000013,  -0.00000624,  -0.00000045
  6.86808330,   0.00000135,   0.00000090,   0.99996913,   0.00000000,  -0.00000053,  -0.00000000,  -0.00002113,  -0.00002203,   0.00005807,  -0.00000013,  -0.00000624,  -0.00000045
  6.93466670,   0.00000144,   0.00000093,   0.99996577,   0.00000000,  -0.00000060,   0.00000000,  -0.00002114,  -0.00002203,   0.00005808,  -0.00000013,  -0.00000624,  -0.00000045
  7.00125000,   0.00000119,   0.00000079,   0.99997352,   0.00000000,  -0.00000048,  -0.00000000,  -0.00002114,  -0.00002204,   0.00005808,  -0.00000013,  -0.00000625,  -0.00000045
  7.06783330,   0.00000276,   0.00000176,   0.99992583,   0.00000000,  -0.00000116,  -0.00000000,  -0.00002114,  -0.00002204,   0.00005808,  -0.00000013,  -0.00000625,  -0.00000045
  7.13441670,   0.00000118,   0.00000079,   0.99997362,   0.00000000,  -0.00000047,  -0.00000000,  -0.00002114,  -0.00002204,   0.00005809,  -0.00000013,  -0.00000625,  -0.00000045
  7.20100000,   0.00000086,   0.00000057,   0.99998420,   0.00000000,  -0.00000033,  -0.00000000,  -0.00002115,  -0.00002204,   0.00005810,  -0.00000013,  -0.00000625,  -0.00000045
  7.26758330,   0.00000129,   0.00000085,   0.99997079,   0.00000000,  -0.00000052,  -0.00000000,  -0.00002115,  -0.00002204,   0.00005810,  -0.00000013,  -0.00000625,  -0.00000045
  7.33416670,  -0.00000101,  -0.00000059,   1.00004050,   0.00000000,   0.00000055,  -0.00000001,  -0.00002115,  -0.00002205,   0.00005811,  -0.00000013,  -0.00000626,  -0.00000045
  7.40075000,  -0.00000001,   0.00000009,   1.00001010,   0.00000001,   0.00000009,  -0.00000000,  -0.00002115,  -0.00002205,   0.00005811,  -0.00000013,  -0.00000626,  -0.00000045
  7.46733330,   0.00000056,   0.00000042,   0.99999298,   0.00000000,  -0.00000020,  -0.00000001,  -0.00002116,  -0.00002205,   0.00005812,  -0.00000013,  -0.00000626,  -0.00000045
  7.53391670,   0.00000113,   0.00000075,   0.99997562,   0.00000000,  -0.00000047,   0.00000000,  -0.00002116,  -0.00002205,   0.00005812,  -0.00000013,  -0.00000626,  -0.00000045
  7.60050000,   0.00000122,   0.00000082,   0.99997258,   0.00000000,  -0.00000049,  -0.00000000,  -0.00002116,  -0.00002205,   0.00005812,  -0.00000013,  -0.00000626,  -0.00000045
  7.66708330,   0.00000090,   0.00000062,   0.99998256,   0.00000000,  -0.00000035,   0.00000000,  -0.00002116,  -0.00002206,   0.00005813,  -0.00000013,  -0.00000626,  -0.00000045
  7.73366670,   0.00000131,   0.00000087,   0.99997008,   0.00000000,  -0.00000052,  -0.00000000,  -0.00002117,  -0.00002206,   0.00005813,  -0.00000013,  -0.00000627,  -0.00000045
  7.80025000,   0.00000123,   0.00000082,   0.99997230,   0.00000000,  -0.00000050,  -0.00000000,  -0.00002117,  -0.00002206,   0.00005814,  -0.00000013,  -0.00000627,  -0.00000045
  7.86683330,   0.00000170,   0.00000113,   0.99995837,   0.00000000,  -0.00000068,  -0.00000000,  -0.00002117,  -0.00002206,   0.00005814,  -0.00000013,  -0.00000627,  -0.00000045
  7.93341670,   0.00000122,   0.00000082,   0.99997269,   0.00000001,  -0.00000048,  -0.00000000,  -0.00002117,  -0.00002206,   0.00005815,  -0.00000013,  -0.00000627,  -0.00000045
  8.00000000,   0.00000371,   0.00000238,   0.99989811,   0.00000000,  -0.00000156,   0.00000001,  -0.00002118,  -0.00002206,   0.00005815,  -0.00000013,  -0.00000627,  -0.00000045
  8.00025000,   0.00000507,   0.00000375,   0.97490031,  -0.00000002,  -0.00000161,  -0.00000007,  -0.00002075,  -0.00002158,   0.00005684,  -0.00000013,  -0.00000616,  -0.00000044
  8.00050000,   0.00000209,   0.00000074,   0.94990131,  -0.00000004,  -0.00000164,  -0.00000003,  -0.00002030,  -0.00002107,   0.00005549,  -0.00000013,  -0.00000603,  -0.00000043
  8.00075000,   0.00000191,  -0.00000528,   0.92491819,  -0.00000005,  -0.00000327,   0.00000003,  -0.00001985,  -0.00002055,   0.00005414,  -0.00000013,  -0.00000591,  -0.00000042
  8.00100000,   0.00000114,  -0.00000316,   0.89990279,  -0.00000006,  -0.00000237,   0.00000002,  -0.00001939,  -0.00002003,   0.00005277,  -0.00000012,  -0.00000578,  -0.00000041
  8.00125000,   0.00000092,  -0.00000147,   0.87490966,  -0.00000006,  -0.00000170,   0.00000001,  -0.00001894,  -0.00001950,   0.00005141,  -0.00000012,  -0.00000565,  -0.00000040
  8.00150000,   0.00000222,   0.00000018,   0.84991017,  -0.00000003,  -0.00000165,   0.00000001,  -0.00001848,  -0.00001897,   0.00005004,  -0.00000012,  -0.00000552,  -0.00000039
  8.00175000,   0.00000483,   0.00000580,   0.82483329,  -0.00000001,  -0.00000224,   0.00000000,  -0.00001802,  -0.00001843,   0.00004867,  -0.00000011,  -0.00000539,  -0.00000038
  8.00200000,   0.00000378,   0.00000290,   0.79991974,   0.00000001,  -0.00000144,   0.00000000,  -0.00001756,  -0.00001790,   0.00004731,  -0.00000011,  -0.00000526,  -0.00000037
  8.00225000,   0.00000509,   0.00000254,   0.77492609,   0.00000002,  -0.00000169,   0.00000002,  -0.00001710,  -0.00001737,   0.00004594,  -0.00000011,  -0.00000513,  -0.00000036
  8.00250000,   0.00000530,   0.00000337,   0.74991986,   0.00000003,  -0.00000172,   0.00000001,  -0.00001665,  -0.00001683,   0.00004457,  -0.00000010,  -0.00000500,  -0.00000035
  8.00275000,   0.00000467,   0.00000330,   0.72493014,   0.00000003,  -0.00000152,   0.00000000,  -0.00001619,  -0.00001630,   0.00004320,  -0.00000010,  -0.00000487,  -0.00000034
  8.00300000,   0.00000744,   0.00000559,   0.69986149,   0.00000002,  -0.00000254,   0.00000001,  -0.00001573,  -0.00001576,   0.00004183,  -0.00000010,  -0.00000474,  -0.00000033
  8.00325000,   0.00000462,   0.00000331,   0.67492438,   0.00000002,  -0.00000170,  -0.00000000,  -0.00001527,  -0.00001523,   0.00004047,  -0.00000009,  -0.00000461,  -0.00000032
  8.00350000,   0.00000432,   0.00000291,   0.64993111,   0.00000001,  -0.00000161,   0.00000001,  -0.00001482,  -0.00001469,   0.00003910,  -0.00000009,  -0.00000448,  -0.00000031
  8.00375000,   0.00000417,   0.00000274,   0.62493116,   0.00000000,  -0.00000164,   0.00000001,  -0.00001436,  -0.00001416,   0.00003773,  -0.00000009,  -0.00000435,  -0.00000030
  8.00400000,   0.00000218,   0.00000145,   0.59997083,  -0.00000000,  -0.00000104,  -0.00000000,  -0.00001390,  -0.00001363,   0.00003636,  -0.00000008,  -0.00000422,  -0.00000029
  8.00425000,   0.00000317,   0.00000203,   0.57494975,  -0.00000001,  -0.00000140,   0.00000001,  -0.00001344,  -0.00001309,   0.00003499,  -0.00000008,  -0.00000408,  -0.00000028
  8.00450000,   0.00000382,   0.00000232,   0.54993615,  -0.00000001,  -0.00000169,   0.00000000,  -0.00001299,  -0.00001256,   0.00003362,  -0.00000008,  -0.00000395,  -0.00000027
  8.00475000,   0.00000340,   0.00000203,   0.52494793,  -0.00000001,  -0.00000155,   0.00000001,  -0.00001253,  -0.00001202,   0.00003225,  -0.00000008,  -0.00000382,  -0.00000026
  8.00500000,   0.00000360,   0.00000220,   0.49994648,  -0.00000000,  -0.00000160,   0.00000000,  -0.00001207,  -0.00001149,   0.00003088,  -0.00000007,  -0.00000369,  -0.00000025
  8.00525000,   0.00000226,   0.00000133,   0.47497874,   0.00000000,  -0.00000111,   0.00000000,  -0.00001161,  -0.00001095,   0.00002951,  -0.00000007,  -0.00000356,  -0.00000024
  8.00550000,   0.00000363,   0.00000225,   0.44995276,   0.00000000,  -0.00000159,   0.00000001,  -0.00001116,  -0.00001042,   0.00002814,  -0.00000007,  -0.00000343,  -0.00000023
  8.00575000,   0.00000355,   0.00000222,   0.42495802,   0.00000001,  -0.00000155,   0.00000000,  -0.00001070,  -0.00000988,   0.00002677,  -0.00000006,  -0.00000330,  -0.00000022
  8.00600000,   0.00000468,   0.00000307,   0.39993510,   0.00000001,  -0.00000191,   0.00000001,  -0.00001024,  -0.00000935,   0.00002540,  -0.00000006,  -0.00000317,  -0.00000021
  8.00625000,   0.00000346,   0.00000221,   0.37496625,   0.00000001,  -0.00000150,   0.00000001,  -0.00000978,  -0.00000881,   0.00002403,  -0.00000006,  -0.00000304,  -0.00000020
  8.00650000,   0.00000360,   0.00000225,   0.34996685,   0.00000001,  -0.00000153,   0.00000001,  -0.00000932,  -0.00000828,   0.00002266,  -0.00000005,  -0.00000291,  -0.00000019
  8.00675000,   0.00000410,   0.00000265,   0.32495789,   0.00000001,  -0.00000169,   0.00000001,  -0.00000887,  -0.00000774,   0.00002129,  -0.00000005,  -0.00000278,  -0.00000018
  8.00700000,   0.00000377,   0.00000243,   0.29996780,   0.00000001,  -0.00000159,   0.00000001,  -0.00000841,  -0.00000721,   0.00001992,  -0.00000005,  -0.00000265,  -0.00000017
  8.00725000,   0.00000356,   0.00000226,   0.27497560,   0.00000001,  -0.00000153,   0.00000001,  -0.00000795,  -0.00000667,   0.00001855,  -0.00000004,  -0.00000252,  -0.00000016
  8.00750000,   0.00000365,   0.00000233,   0.24997609,   0.00000001,  -0.00000155,   0.00000001,  -0.00000749,  -0.00000614,   0.00001718,  -0.00000004,  -0.00000239,  -0.00000015
  8.00775000,   0.00000376,   0.00000242,   0.22497633,   0.00000001,  -0.00000158,   0.00000001,  -0.00000703,  -0.00000560,   0.00001581,  -0.00000004,  -0.00000226,  -0.00000014
  8.00800000,   0.00000345,   0.00000220,   0.19998547,   0.00000001,  -0.00000148,   0.00000001,  -0.00000658,  -0.00000506,   0.00001444,  -0.00000004,  -0.00000213,  -0.00000013
  8.00825000,   0.00000368,   0.00000235,   0.17498253,   0.00000001,  -0.00000156,   0.00000001,  -0.00000612,  -0.00000453,   0.00001307,  -0.00000003,  -0.00000200,  -0.00000012
  8.00850000,   0.00000362,   0.00000231,   0.14998655,   0.00000000,  -0.00000154,   0.00000001,  -0.00000566,  -0.00000399,   0.00001170,  -0.00000003,  -0.00000187,  -0.00000011
  8.00875000,   0.00000369,   0.00000236,   0.12498776,   0.00000000,  -0.00000156,   0.00000001,  -0.00000520,  -0.00000346,   0.00001033,  -0.00000003,  -0.00000174,  -0.00000009
  8.00900000,   0.00000366,   0.00000234,   0.09999094,   0.00000000,  -0.00000155,   0.00000001,  -0.00000474,  -0.00000292,   0.00000896,  -0.00000002,  -0.00000160,  -0.00000008
  8.00925000,   0.00000370,   0.00000237,   0.07499261,   0.00000000,  -0.00000156,   0.00000001,  -0.00000429,  -0.00000239,   0.00000759,  -0.00000002,  -0.00000147,  -0.00000007
  8.00950000,   0.00000371,   0.00000238,   0.04999495,   0.00000000,  -0.00000156,   0.00000001,  -0.00000383,  -0.00000185,   0.00000622,  -0.00000002,  -0.00000134,  -0.00000006
  8.00975000,   0.00000371,   0.00000238,   0.02499749,   0.00000000,  -0.00000156,   0.00000001,  -0.00000337,  -0.00000132,   0.00000485,  -0.00000001,  -0.00000121,  -0.00000005
  8.01000000,   0.00000371,   0.00000238,  -0.00000000,   0.00000000,  -0.00000156,   0.00000001,  -0.00000291,  -0.00000078,   0.00000348,  -0.00000001,  -0.00000108,  -0.00000004
  8.14316670,   0.00000371,   0.00000238,   0.00000001,   0.00000000,  -0.00000156,   0.00000001,  -0.00000217,  -0.00000052,   0.00000260,  -0.00000001,  -0.00000087,  -0.00000004
  8.27633330,   0.00000371,   0.00000238,  -0.00000000,   0.00000000,  -0.00000156,   0.00000001,  -0.00000167,  -0.00000047,   0.00000208,  -0.00000001,  -0.00000074,  -0.00000003
  8.40950000,   0.00000371,   0.00000238,   0.00000000,   0.00000000,  -0.00000156,   0.00000001,  -0.00000129,  -0.00000044,   0.00000169,  -0.00000001,  -0.00000064,  -0.00000003
  8.54266670,   0.00000371,   0.00000238,  -0.00000000,   0.00000000,  -0.00000156,   0.00000001,  -0.00000102,  -0.00000042,   0.00000141,  -0.00000001,  -0.00000056,  -0.00000002
  8.67583330,   0.00000371,   0.00000238,  -0.00000002,   0.00000000,  -0.00000156,   0.00000001,  -0.00000081,  -0.00000040,   0.00000120,  -0.00000000,  -0.00000050,  -0.00000002
  8.80900000,   0.00000371,   0.00000238,   0.00000001,   0.00000000,  -0.00000156,   0.00000001,  -0.00000066,  -0.00000038,   0.00000105,  -0.00000000,  -0.00000046,  -0.00000002
  8.94216670,   0.00000371,   0.00000238,  -0.00000000,   0.00000000,  -0.00000156,   0.00000001,  -0.00000055,  -0.00000037,   0.00000093,  -0.00000000,  -0.00000042,  -0.00000002
  9.07533330,   0.00000371,   0.00000238,   0.00000000,   0.00000000,  -0.00000156,   0.00000001,  -0.00000048,  -0.00000036,   0.00000085,  -0.00000000,  -0.00000040,  -0.00000002
  9.20850000,   0.00000371,   0.00000238,  -0.00000000,   0.00000000,  -0.00000156,   0.00000001,  -0.00000042,  -0.00000035,   0.00000078,  -0.00000000,  -0.00000037,  -0.00000002
  9.34166670,   0.00000371,   0.00000238,   0.00000000,   0.00000000,  -0.00000156,   0.00000001,  -0.00000038,  -0.00000034,   0.00000073,  -0.00000000,  -0.00000035,  -0.00000002
  9.47483330,   0.00000371,   0.00000238,   0.00000000,   0.00000000,  -0.00000156,   0.00000001,  -0.00000035,  -0.00000033,   0.00000070,  -0.00000000,  -0.00000034,  -0.00000001
  9.60800000,   0.00000371,   0.00000238,   0.00000000,   0.00000000,  -0.00000156,   0.00000001,  -0.00000032,  -0.00000032,   0.00000067,  -0.00000000,  -0.00000033,  -0.00000001
  9.74116670,   0.00000371,   0.00000238,  -0.00000001,   0.00000000,  -0.00000156,   0.00000001,  -0.00000031,  -0.00000032,   0.00000065,  -0.00000000,  -0.00000031,  -0.00000001
  9.87433330,   0.00000371,   0.00000238,  -0.00000001,   0.00000000,  -0.00000156,   0.00000001,  -0.00000030,  -0.00000031,   0.00000063,  -0.00000000,  -0.00000030,  -0.00000001
 10.00750000,   0.00000371,   0.00000238,   0.00000001,   0.00000000,  -0.00000156,   0.00000001,  -0.00000029,  -0.00000031,   0.00000062,  -0.00000000,  -0.00000030,  -0.00000001
 10.14066700,   0.00000371,   0.00000238,   0.00000001,   0.00000000,  -0.00000156,   0.00000001,  -0.00000029,  -0.00000030,   0.00000061,  -0.00000000,  -0.00000029,  -0.00000001
 10.27383300,   0.00000371,   0.00000238,   0.00000001,   0.00000000,  -0.00000156,   0.00000001,  -0.00000029,  -0.00000029,   0.00000060,  -0.00000000,  -0.00000028,  -0.00000001
 10.40700000,   0.00000371,   0.00000238,  -0.00000000,   0.00000000,  -0.00000156,   0.00000001,  -0.00000028,  -0.00000029,   0.00000060,  -0.00000000,  -0.00000027,  -0.00000001
 10.54016700,   0.00000371,   0.00000238,  -0.00000001,   0.00000000,  -0.00000156,   0.00000001,  -0.00000028,  -0.00000028,   0.00000059,  -0.00000000,  -0.00000027,  -0.00000001
 10.67333300,   0.00000371,   0.00000238,  -0.00000000,   0.00000000,  -0.00000156,   0.00000001,  -0.00000028,  -0.00000028,   0.00000059,  -0.00000000,  -0.00000026,  -0.00000001
 10.80650000,   0.00000371,   0.00000238,   0.00000000,   0.00000000,  -0.00000156,   0.00000001,  -0.00000028,  -0.00000027,   0.00000058,  -0.00000000,  -0.00000026,  -0.00000001
 10.93966700,   0.00000371,   0.00000238,   0.00000000,   0.00000000,  -0.00000156,   0.00000001,  -0.00000029,  -0.00000027,   0.00000058,  -0.00000000,  -0.00000025,  -0.00000001
 11.07283300,   0.00000371,   0.00000238,  -0.00000000,   0.00000000,  -0.00000156,   0.00000001,  -0.00000029,  -0.00000027,   0.00000058,  -0.00000000,  -0.00000025,  -0.00000001
 11.20600000,   0.00000371,   0.00000238,   0.00000000,   0.00000000,  -0.00000156,   0.00000001,  -0.00000029,  -0.00000026,   0.00000057,  -0.00000000,  -0.00000024,  -0.00000001
 11.33916700,   0.00000371,   0.00000238,  -0.00000000,   0.00000000,  -0.00000156,   0.00000001,  -0.00000029,  -0.00000026,   0.00000057,  -0.00000000,  -0.00000024,  -0.00000001
 11.47233300,   0.00000371,   0.00000238,  -0.00000000,   0.00000000,  -0.00000156,   0.00000001,  -0.00000029,  -0.00000025,   0.00000057,  -0.00000000,  -0.00000023,  -0.00000001
 11.60550000,   0.00000371,   0.00000238,  -0.00000000,   0.00000000,  -0.00000156,   0.00000001,  -0.00000029,  -0.00000025,   0.00000056,  -0.00000000,  -0.00000023,  -0.00000001
 11.73866700,   0.00000371,   0.00000238,  -0.00000000,   0.00000000,  -0.00000156,   0.00000001,  -0.00000029,  -0.00000024,   0.00000056,  -0.00000000,  -0.00000023,  -0.00000001
 11.87183300,   0.00000371,   0.00000238,   0.00000000,   0.00000000,  -0.00000156,   0.00000001,  -0.00000030,  -0.00000024,   0.00000056,  -0.00000000,  -0.00000022,  -0.00000001
 12.00500000,   0.00000371,   0.00000238,  -0.00000000,   0.00000000,  -0.00000156,   0.00000001,  -0.00000030,  -0.00000024,   0.00000056,  -0.00000000,  -0.00000022,  -0.00000001
 12.13816700,   0.00000371,   0.00000238,  -0.00000000,   0.00000000,  -0.00000156,   0.00000001,  -0.00000030,  -0.00000023,   0.00000056,  -0.00000000,  -0.00000022,  -0.00000001
 12.27133300,   0.00000371,   0.00000238,  -0.00000000,   0.00000000,  -0.00000156,   0.00000001,  -0.00000030,  -0.00000023,   0.00000055,  -0.00000000,  -0.00000021,  -0.00000001
 12.40450000,   0.00000371,   0.00000238,  -0.00000001,   0.00000000,  -0.00000156,   0.00000001,  -0.00000030,  -0.00000023,   0.00000055,  -0.00000000,  -0.00000021,  -0.00000001
 12.53766700,   0.00000371,   0.00000238,  -0.00000001,   0.00000000,  -0.00000156,   0.00000001,  -0.00000030,  -0.00000022,   0.00000055,  -0.00000000,  -0.00000021,  -0.00000001
 12.67083300,   0.00000371,   0.00000238,   0.00000000,   0.00000000,  -0.00000156,   0.00000001,  -0.00000030,  -0.00000022,   0.00000055,  -0.00000000,  -0.00000020,  -0.00000001
 12.80400000,   0.00000371,   0.00000238,  -0.00000000,   0.00000000,  -0.00000156,   0.00000001,  -0.00000030,  -0.00000022,   0.00000054,  -0.00000000,  -0.00000020,  -0.00000001
 12.93716700,   0.00000371,   0.00000238,   0.00000000,   0.00000000,  -0.00000156,   0.00000001,  -0.00000030,  -0.00000021,   0.00000054,  -0.00000000,  -0.00000020,  -0.00000001
 13.07033300,   0.00000371,   0.00000238,   0.00000000,   0.00000000,  -0.00000156,   0.00000001,  -0.00000031,  -0.00000021,   0.00000054,  -0.00000000,  -0.00000019,  -0.00000001
 13.20350000,   0.00000371,   0.00000238,   0.00000000,   0.00000000,  -0.00000156,   0.00000001,  -0.00000031,  -0.00000021,   0.00000054,  -0.00000000,  -0.00000019,  -0.00000001
 13.33666700,   0.00000371,   0.00000238,  -0.00000000,   0.00000000,  -0.00000156,   0.00000001,  -0.00000031,  -0.00000021,   0.00000054,  -0.00000000,  -0.00000019,  -0.00000001
 13.46983300,   0.00000371,   0.00000238,  -0.00000000,   0.00000000,  -0.00000156,   0.00000001,  -0.00000031,  -0.00000020,   0.00000053,  -0.00000000,  -0.00000019,  -0.00000001
 13.60300000,   0.00000371,   0.00000238,   0.00000000,   0.00000000,  -0.00000156,   0.00000001,  -0.00000031,  -0.00000020,   0.00000053,  -0.00000000,  -0.00000018,  -0.00000001
 13.73616700,   0.00000371,   0.00000238,   0.00000000,   0.00000000,  -0.00000156,   0.00000001,  -0.00000031,  -0.00000020,   0.00000053,  -0.00000000,  -0.00000018,  -0.00000001
 13.86933300,   0.00000371,   0.00000238,   0.00000000,   0.00000000,  -0.00000156,   0.00000001,  -0.00000031,  -0.00000020,   0.00000053,  -0.00000000,  -0.00000018,  -0.00000001
 14.00250000,   0.00000371,   0.00000238,   0.00000001,   0.00000000,  -0.00000156,   0.00000001,  -0.00000031,  -0.00000019,   0.00000053,  -0.00000000,  -0.00000018,  -0.00000001
 14.13566700,   0.00000371,   0.00000238,   0.00000000,   0.00000000,  -0.00000156,   0.00000001,  -0.00000031,  -0.00000019,   0.00000052,  -0.00000000,  -0.00000017,  -0.00000001
 14.26883300,   0.00000371,   0.00000238,  -0.00000000,   0.00000000,  -0.00000156,   0.00000001,  -0.00000031,  -0.00000019,   0.00000052,  -0.00000000,  -0.00000017,  -0.00000001
 14.40200000,   0.00000371,   0.00000238,  -0.00000000,   0.00000000,  -0.00000156,   0.00000001,  -0.00000031,  -0.00000019,   0.00000052,  -0.00000000,  -0.00000017,  -0.00000001
 14.53516700,   0.00000371,   0.00000238,  -0.00000000,   0.00000000,  -0.00000156,   0.00000001,  -0.00000031,  -0.00000019,   0.00000052,  -0.00000000,  -0.00000017,  -0.00000001
 14.66833300,   0.00000371,   0.00000238,   0.00000000,   0.00000000,  -0.00000156,   0.00000001,  -0.00000031,  -0.00000018,   0.00000052,  -0.00000000,  -0.00000017,  -0.00000001
 14.80150000,   0.00000371,   0.00000238,   0.00000002,   0.00000000,  -0.00000156,   0.00000001,  -0.00000031,  -0.00000018,   0.00000052,  -0.00000000,  -0.00000016,  -0.00000001
 14.93466700,   0.00000371,   0.00000238,  -0.00000000,   0.00000000,  -0.00000156,   0.00000001,  -0.00000031,  -0.00000018,   0.00000051,  -0.00000000,  -0.00000016,  -0.00000001
 15.06783300,   0.00000371,   0.00000238,  -0.00000000,   0.00000000,  -0.00000156,   0.00000001,  -0.00000031,  -0.00000018,   0.00000051,  -0.00000000,  -0.00000016,  -0.00000001
 15.20100000,   0.00000371,   0.00000238,  -0.00000000,   0.00000000,  -0.00000156,   0.00000001,  -0.00000031,  -0.00000018,   0.00000051,  -0.00000000,  -0.00000016,  -0.00000001
 15.33416700,   0.00000371,   0.00000238,  -0.00000000,   0.00000000,  -0.00000156,   0.00000001,  -0.00000031,  -0.00000017,   0.00000051,  -0.00000000,  -0.00000016,  -0.00000001
 15.46733300,   0.00000371,   0.00000238,   0.00000000,   0.00000000,  -0.00000156,   0.00000001,  -0.00000031,  -0.00000017,   0.00000051,  -0.00000000,  -0.00000016,  -0.00000001
 15.60050000,   0.00000371,   0.00000238,  -0.00000000,   0.00000000,  -0.00000156,   0.00000001,  -0.00000031,  -0.00000017,   0.00000050,  -0.00000000,  -0.00000015,  -0.00000001
 15.73366700,   0.00000371,   0.00000238,  -0.00000000,   0.00000000,  -0.00000156,   0.00000001,  -0.00000031,  -0.00000017,   0.00000050,  -0.00000000,  -0.00000015,  -0.00000001
 15.86683300,   0.00000371,   0.00000238,  -0.00000000,   0.00000000,  -0.00000156,   0.00000001,  -0.00000031,  -0.00000017,   0.00000050,  -0.00000000,  -0.00000015,  -0.00000001
 16.00000000,   0.00000371,   0.00000238,   0.00000000,   0.00000000,  -0.00000156,   0.00000001,  -0.00000031,  -0.00000017,   0.00000050,  -0.00000000,  -0.00000015,  -0.00000001
