Time (m)    , Stress_xx (MPa), Stress_yy (MPa), Stress_zz (MPa), Stress_xy (MPa), Stress_xz (MPa), Stress_yz (MPa), Strain_xx   , Strain_yy   , Strain_zz   , Strain_xy   , Strain_xz   , Strain_yz   
  0.00000000,   0.00000000,   0.00000000,   0.00000000,   0.00000000,   0.00000000,   0.00000000,   0.00000000,   0.00000000,   0.00000000,   0.00000000,   0.00000000,   0.00000000
  0.00050000,  -0.00000003,  -0.00000002,   0.05000076,   0.00000000,  -0.00000001,  -0.00000000,  -0.00000085,  -0.00000097,   0.00000258,  -0.00000000,  -0.00000025,  -0.00000001
  0.00100000,   0.00000026,   0.00000017,   0.10000181,   0.00000000,  -0.00000007,   0.00000000,  -0.00000173,  -0.00000198,   0.00000522,  -0.00000000,  -0.00000051,  -0.00000002
  0.00150000,   0.00000026,   0.00000042,   0.15000112,   0.00000000,   0.00000008,   0.00000000,  -0.00000262,  -0.00000301,   0.00000787,  -0.00000000,  -0.00000078,  -0.00000003
  0.00200000,  -0.00000129,   0.00000284,   0.19999882,   0.00000000,   0.00000098,  -0.00000000,  -0.00000350,  -0.00000404,   0.00001053,  -0.00000000,  -0.00000104,  -0.00000004
  0.00250000,  -0.00000010,   0.00000101,   0.25000066,   0.00000000,   0.00000023,   0.00000001,  -0.00000439,  -0.00000507,   0.00001318,  -0.00000000,  -0.00000131,  -0.00000006
  0.00300000,   0.00000020,   0.00000052,   0.30000037,   0.00000000,   0.00000002,   0.00000000,  -0.00000528,  -0.00000611,   0.00001584,  -0.00000000,  -0.00000158,  -0.00000007
  0.00350000,   0.00000014,   0.00000036,   0.35000028,   0.00000000,   0.00000002,   0.00000000,  -0.00000617,  -0.00000715,   0.00001850,  -0.00000000,  -0.00000185,  -0.00000008
  0.00400000,  -0.00000065,  -0.00000123,   0.40003315,   0.00000000,   0.00000029,  -0.00000000,  -0.00000705,  -0.00000819,   0.00002116,  -0.00000000,  -0.00000211,  -0.00000009
  0.00450000,   0.00000015,  -0.00000012,   0.45000042,  -0.00000000,  -0.00000008,  -0.00000000,  -0.00000794,  -0.00000922,   0.00002382,  -0.00000000,  -0.00000238,  -0.00000010
  0.00500000,   0.00000010,   0.00000025,   0.49999329,  -0.00000000,  -0.00000005,  -0.00000001,  -0.00000883,  -0.00001026,   0.00002648,  -0.00000000,  -0.00000265,  -0.00000011
  0.00550000,  -0.00000022,  -0.00000007,   0.55000070,  -0.00000000,   0.00000005,  -0.00000000,  -0.00000972,  -0.00001130,   0.00002914,  -0.00000000,  -0.00000292,  -0.00000012
  0.00600000,   0.00000085,   0.00000033,   0.59997952,  -0.00000001,  -0.00000042,  -0.00000002,  -0.00001060,  -0.00001234,   0.00003180,  -0.00000000,  -0.00000319,  -0.00000013
  0.00650000,  -0.00000027,  -0.00000028,   0.65000276,  -0.00000000,   0.00000001,  -0.00000000,  -0.00001149,  -0.00001337,   0.00003446,  -0.00000000,  -0.00000345,  -0.00000014
  0.00700000,  -0.00000009,  -0.00000007,   0.69999855,  -0.00000000,   0.00000001,   0.00000000,  -0.00001238,  -0.00001441,   0.00003712,  -0.00000000,  -0.00000372,  -0.00000016
  0.00750000,  -0.00000180,  -0.00000144,   0.75004423,  -0.00000000,   0.00000050,  -0.00000001,  -0.00001327,  -0.00001545,   0.00003978,  -0.00000000,  -0.00000399,  -0.00000017
  0.00800000,  -0.00000072,  -0.00000056,   0.80001726,  -0.00000001,   0.00000017,  -0.00000001,  -0.00001416,  -0.00001649,   0.00004244,  -0.00000000,  -0.00000426,  -0.00000018
  0.00850000,   0.00000006,   0.00000005,   0.84999775,  -0.00000001,  -0.00000001,  -0.00000000,  -0.00001505,  -0.00001753,   0.00004510,  -0.00000000,  -0.00000453,  -0.00000019
  0.00900000,  -0.00000002,  -0.00000001,   0.90000076,  -0.00000000,   0.00000005,   0.00000000,  -0.00001594,  -0.00001857,   0.00004776,  -0.00000000,  -0.00000480,  -0.00000020
  0.00950000,  -0.00000000,   0.00000009,   0.95000086,  -0.00000001,  -0.00000011,  -0.00000000,  -0.00001682,  -0.00001961,   0.00005042,  -0.00000000,  -0.00000506,  -0.00000021
  0.01000000,   0.00000057,   0.00000043,   0.99998749,  -0.00000001,  -0.00000025,  -0.00000001,  -0.00001771,  -0.00002065,   0.00005308,  -0.00000000,  -0.00000533,  -0.00000022
  0.07658333,   0.00000128,   0.00000034,   0.99998039,   0.00000001,  -0.00000102,  -0.00000002,  -0.00001812,  -0.00002086,   0.00005361,  -0.00000000,  -0.00000547,  -0.00000023
  0.14316667,  -0.00000033,  -0.00000074,   0.99998456,   0.00000000,  -0.00000046,  -0.00000003,  -0.00001844,  -0.00002090,   0.00005396,  -0.00000000,  -0.00000555,  -0.00000023
  0.20975000,  -0.00000073,  -0.00000091,   0.99998382,  -0.00000001,  -0.00000044,  -0.00000003,  -0.00001873,  -0.00002093,   0.00005425,  -0.00000000,  -0.00000563,  -0.00000023
  0.27633333,  -0.00000821,   0.00000480,   1.00000040,  -0.00000000,  -0.00000608,  -0.00000002,  -0.00001897,  -0.00002095,   0.00005450,  -0.00000000,  -0.00000570,  -0.00000023
  0.34291667,  -0.00000044,  -0.00000031,   0.99998622,  -0.00000003,  -0.00000042,  -0.00000003,  -0.00001918,  -0.00002097,   0.00005471,  -0.00000000,  -0.00000575,  -0.00000023
  0.40950000,  -0.00000540,   0.00000438,   0.99999917,  -0.00000001,  -0.00000313,  -0.00000004,  -0.00001935,  -0.00002099,   0.00005490,  -0.00000000,  -0.00000580,  -0.00000023
  0.47608333,  -0.00000583,   0.00000596,   1.00000210,   0.00000001,  -0.00000537,  -0.00000004,  -0.00001950,  -0.00002100,   0.00005505,  -0.00000000,  -0.00000585,  -0.00000023
  0.54266667,   0.00000060,   0.00000077,   0.99998701,  -0.00000001,  -0.00000039,  -0.00000002,  -0.00001963,  -0.00002101,   0.00005518,  -0.00000000,  -0.00000588,  -0.00000023
  0.60925000,  -0.00000242,   0.00000311,   0.99999272,  -0.00000001,  -0.00000159,  -0.00000002,  -0.00001974,  -0.00002103,   0.00005529,  -0.00000000,  -0.00000591,  -0.00000023
  0.67583333,  -0.00000324,   0.00000384,   0.99999907,   0.00000001,  -0.00000312,  -0.00000002,  -0.00001983,  -0.00002104,   0.00005539,  -0.00000000,  -0.00000594,  -0.00000023
  0.74241667,  -0.00000350,   0.00000290,   1.00002240,   0.00000001,  -0.00000307,  -0.00000001,  -0.00001991,  -0.00002105,   0.00005547,  -0.00000000,  -0.00000597,  -0.00000024
  0.80900000,   0.00000007,   0.00000218,   0.99998372,   0.00000001,  -0.00000132,  -0.00000003,  -0.00001997,  -0.00002105,   0.00005554,  -0.00000000,  -0.00000599,  -0.00000024
  0.87558333,   0.00000018,   0.00000166,   0.99998728,   0.00000001,  -0.00000068,  -0.00000003,  -0.00002003,  -0.00002106,   0.00005560,  -0.00000000,  -0.00000601,  -0.00000024
  0.94216667,  -0.00000097,   0.00000210,   0.99999356,   0.00000001,  -0.00000136,  -0.00000002,  -0.00002007,  -0.00002107,   0.00005566,  -0.00000000,  -0.00000603,  -0.00000024
  1.00875000,  -0.00000175,   0.00000149,   1.00001140,   0.00000001,  -0.00000150,  -0.00000001,  -0.00002012,  -0.00002108,   0.00005570,  -0.00000000,  -0.00000604,  -0.00000024
  1.07533330,   0.00000009,   0.00000119,   0.99998503,  -0.00000000,  -0.00000087,  -0.00000002,  -0.00002015,  -0.00002108,   0.00005574,  -0.00000000,  -0.00000606,  -0.00000024
  1.14191670,   0.00000012,   0.00000087,   0.99998712,  -0.00000000,  -0.00000053,  -0.00000002,  -0.00002018,  -0.00002109,   0.00005578,  -0.00000000,  -0.00000607,  -0.00000024
  1.20850000,  -0.00000043,   0.00000108,   0.99999063,  -0.00000000,  -0.00000086,  -0.00000001,  -0.00002020,  -0.00002110,   0.00005581,  -0.00000000,  -0.00000608,  -0.00000024
  1.27508330,  -0.00000073,   0.00000086,   0.99999821,  -0.00000000,  -0.00000094,  -0.00000001,  -0.00002023,  -0.00002110,   0.00005583,  -0.00000000,  -0.00000609,  -0.00000024
  1.34166670,   0.00000025,   0.00000071,   0.99998582,  -0.00000001,  -0.00000057,  -0.00000001,  -0.00002024,  -0.00002111,   0.00005586,  -0.00000000,  -0.00000610,  -0.00000024
  1.40825000,   0.00000031,   0.00000059,   0.99998723,  -0.00000001,  -0.00000039,  -0.00000001,  -0.00002026,  -0.00002111,   0.00005588,  -0.00000000,  -0.00000611,  -0.00000024
  1.47483330,   0.00000003,   0.00000074,   0.99998966,  -0.00000001,  -0.00000058,  -0.00000001,  -0.00002027,  -0.00002112,   0.00005589,  -0.00000000,  -0.00000612,  -0.00000024
  1.54141670,  -0.00000010,   0.00000063,   0.99999454,  -0.00000000,  -0.00000062,  -0.00000001,  -0.00002028,  -0.00002112,   0.00005591,  -0.00000000,  -0.00000612,  -0.00000024
  1.60800000,  -0.00000017,   0.00000051,   0.99999798,  -0.00000000,  -0.00000057,  -0.00000000,  -0.00002029,  -0.00002113,   0.00005593,  -0.00000000,  -0.00000613,  -0.00000024
  1.67458330,   0.00000050,   0.00000061,   0.99998682,  -0.00000001,  -0.00000040,  -0.00000001,  -0.00002030,  -0.00002113,   0.00005594,  -0.00000000,  -0.00000614,  -0.00000024
  1.74116670,   0.00000262,   0.00000063,   0.99993822,  -0.00000000,  -0.00000056,   0.00000001,  -0.00002031,  -0.00002114,   0.00005595,  -0.00000000,  -0.00000615,  -0.00000024
  1.80775000,   0.00000058,   0.00000046,   0.99998878,  -0.00000001,  -0.00000020,  -0.00000001,  -0.00002032,  -0.00002114,   0.00005596,  -0.00000000,  -0.00000615,  -0.00000024
  1.87433330,   0.00000052,   0.00000061,   0.99998736,  -0.00000001,  -0.00000036,  -0.00000001,  -0.00002032,  -0.00002115,   0.00005597,  -0.00000000,  -0.00000616,  -0.00000024
  1.94091670,   0.00000284,   0.00000106,   0.99993212,  -0.00000001,  -0.00000053,  -0.00000001,  -0.00002033,  -0.00002115,   0.00005598,  -0.00000000,  -0.00000616,  -0.00000024
  2.00750000,   0.00000117,   0.00000074,   0.99997165,  -0.00000001,  -0.00000029,  -0.00000001,  -0.00002033,  -0.00002116,   0.00005599,  -0.00000000,  -0.00000617,  -0.00000024
  2.07408330,   0.00000062,   0.00000059,   0.99998495,  -0.00000001,  -0.00000035,  -0.00000001,  -0.00002034,  -0.00002116,   0.00005600,  -0.00000000,  -0.00000617,  -0.00000024
  2.14066670,   0.00000059,   0.00000054,   0.99998630,  -0.00000001,  -0.00000035,  -0.00000001,  -0.00002034,  -0.00002116,   0.00005601,  -0.00000000,  -0.00000618,  -0.00000024
  2.20725000,   0.00000186,   0.00000089,   0.99995279,  -0.00000000,  -0.00000045,  -0.00000001,  -0.00002034,  -0.00002117,   0.00005601,  -0.00000000,  -0.00000618,  -0.00000024
  2.27383330,   0.00000083,   0.00000057,   0.99997853,  -0.00000001,  -0.00000026,  -0.00000001,  -0.00002035,  -0.00002117,   0.00005602,  -0.00000000,  -0.00000619,  -0.00000024
  2.34041670,   0.00000066,   0.00000054,   0.99998411,  -0.00000001,  -0.00000033,  -0.00000001,  -0.00002035,  -0.00002118,   0.00005603,  -0.00000000,  -0.00000619,  -0.00000024
  2.40700000,   0.00000169,   0.00000090,   0.99995290,  -0.00000001,  -0.00000045,  -0.00000001,  -0.00002035,  -0.00002118,   0.00005603,  -0.00000000,  -0.00000620,  -0.00000024
  2.47358330,   0.00000036,   0.00000029,   0.99999363,  -0.00000001,  -0.00000011,  -0.00000001,  -0.00002035,  -0.00002118,   0.00005604,  -0.00000000,  -0.00000620,  -0.00000024
  2.54016670,   0.00000060,   0.00000048,   0.99998600,  -0.00000001,  -0.00000032,  -0.00000001,  -0.00002036,  -0.00002119,   0.00005605,  -0.00000000,  -0.00000621,  -0.00000024
  2.60675000,  -0.00000052,  -0.00000033,   1.00002000,  -0.00000001,   0.00000045,  -0.00000001,  -0.00002036,  -0.00002119,   0.00005606,  -0.00000000,  -0.00000621,  -0.00000024
  2.67333330,   0.00000069,   0.00000050,   0.99998331,  -0.00000001,  -0.00000027,  -0.00000001,  -0.00002036,  -0.00002120,   0.00005606,  -0.00000000,  -0.00000621,  -0.00000024
  2.73991670,   0.00000053,   0.00000042,   0.99998860,  -0.00000001,  -0.00000027,  -0.00000001,  -0.00002036,  -0.00002120,   0.00005607,  -0.00000000,  -0.00000622,  -0.00000024
  2.80650000,   0.00000185,   0.00000121,   0.99994656,  -0.00000001,  -0.00000067,  -0.00000001,  -0.00002036,  -0.00002120,   0.00005607,  -0.00000000,  -0.00000622,  -0.00000024
  2.87308330,   0.00000138,   0.00000086,   0.99996056,  -0.00000000,  -0.00000058,  -0.00000001,  -0.00002037,  -0.00002121,   0.00005608,  -0.00000000,  -0.00000623,  -0.00000024
  2.93966670,   0.00000044,   0.00000035,   0.99999151,  -0.00000001,  -0.00000020,  -0.00000001,  -0.00002037,  -0.00002121,   0.00005608,  -0.00000000,  -0.00000623,  -0.00000024
  3.00625000,   0.00000062,   0.00000046,   0.99998622,  -0.00000001,  -0.00000029,  -0.00000001,  -0.00002037,  -0.00002121,   0.00005609,  -0.00000000,  -0.00000623,  -0.00000024
  3.07283330,  -0.00000039,  -0.00000016,   1.00001590,  -0.00000002,   0.00000027,  -0.00000001,  -0.00002037,  -0.00002122,   0.00005610,  -0.00000000,  -0.00000624,  -0.00000024
  3.13941670,   0.00000061,   0.00000045,   0.99998615,  -0.00000001,  -0.00000025,  -0.00000001,  -0.00002037,  -0.00002122,   0.00005610,  -0.00000000,  -0.00000624,  -0.00000024
  3.20600000,   0.00000057,   0.00000043,   0.99998775,  -0.00000001,  -0.00000027,  -0.00000001,  -0.00002038,  -0.00002122,   0.00005610,  -0.00000000,  -0.00000624,  -0.00000024
  3.27258330,   0.00000094,   0.00000068,   0.99997487,  -0.00000001,  -0.00000032,  -0.00000001,  -0.00002038,  -0.00002123,   0.00005611,  -0.00000000,  -0.00000625,  -0.00000024
  3.33916670,   0.00000052,   0.00000040,   0.99998901,  -0.00000001,  -0.00000021,  -0.00000001,  -0.00002038,  -0.00002123,   0.00005612,  -0.00000000,  -0.00000625,  -0.00000024
  3.40575000,   0.00000317,   0.00000207,   0.99990617,   0.00000001,  -0.00000133,  -0.00000001,  -0.00002038,  -0.00002123,   0.00005612,  -0.00000000,  -0.00000625,  -0.00000024
  3.47233330,   0.00000119,   0.00000083,   0.99996558,   0.00000000,  -0.00000055,  -0.00000001,  -0.00002038,  -0.00002124,   0.00005613,  -0.00000000,  -0.00000626,  -0.00000024
  3.53891670,  -0.00000085,  -0.00000053,   1.00002860,  -0.00000001,   0.00000031,  -0.00000001,  -0.00002039,  -0.00002124,   0.00005613,  -0.00000000,  -0.00000626,  -0.00000024
  3.60550000,   0.00000000,   0.00000002,   1.00000210,  -0.00000001,  -0.00000010,  -0.00000001,  -0.00002039,  -0.00002124,   0.00005614,  -0.00000000,  -0.00000626,  -0.00000024
  3.67208330,   0.00000041,   0.00000032,   0.99999229,  -0.00000001,  -0.00000019,  -0.00000001,  -0.00002039,  -0.00002125,   0.00005614,  -0.00000000,  -0.00000627,  -0.00000024
  3.73866670,   0.00000048,   0.00000037,   0.99999026,  -0.00000001,  -0.00000021,  -0.00000001,  -0.00002039,  -0.00002125,   0.00005615,  -0.00000000,  -0.00000627,  -0.00000024
  3.80525000,   0.00000070,   0.00000056,   0.99998208,  -0.00000000,  -0.00000028,  -0.00000001,  -0.00002039,  -0.00002125,   0.00005615,  -0.00000000,  -0.00000627,  -0.00000024
  3.87183330,   0.00000051,   0.00000039,   0.99998919,  -0.00000001,  -0.00000022,  -0.00000001,  -0.00002039,  -0.00002126,   0.00005616,  -0.00000000,  -0.00000628,  -0.00000024
  3.93841670,   0.00000199,   0.00000141,   0.99994205,   0.00000001,  -0.00000084,  -0.00000002,  -0.00002039,  -0.00002126,   0.00005616,  -0.00000000,  -0.00000628,  -0.00000024
  4.00500000,   0.00000056,   0.00000043,   0.99998770,  -0.00000001,  -0.00000023,  -0.00000001,  -0.00002040,  -0.00002126,   0.00005617,  -0.00000000,  -0.00000628,  -0.00000024
  4.07158330,   0.00000059,   0.00000043,   0.99998739,  -0.00000001,  -0.00000027,  -0.00000001,  -0.00002040,  -0.00002127,   0.00005617,  -0.00000000,  -0.00000629,  -0.00000024
  4.13816670,   0.00000049,   0.00000045,   0.99998866,  -0.00000001,  -0.00000015,  -0.00000001,  -0.00002040,  -0.00002127,   0.00005618,  -0.00000000,  -0.00000629,  -0.00000024
  4.20475000,   0.00000103,   0.00000070,   0.99997440,  -0.00000000,  -0.00000054,   0.00000000,  -0.00002040,  -0.00002127,   0.00005618,  -0.00000000,  -0.00000629,  -0.00000024
  4.27133330,   0.00000039,   0.00000031,   0.99999340,  -0.00000001,  -0.00000020,  -0.00000001,  -0.00002041,  -0.00002127,   0.00005619,  -0.00000000,  -0.00000629,  -0.00000024
  4.33791670,   0.00000061,   0.00000045,   0.99998633,  -0.00000001,  -0.00000027,  -0.00000001,  -0.00002041,  -0.00002128,   0.00005619,  -0.00000000,  -0.00000630,  -0.00000024
  4.40450000,  -0.00000075,  -0.00000035,   1.00002730,  -0.00000001,   0.00000036,  -0.00000001,  -0.00002041,  -0.00002128,   0.00005620,  -0.00000000,  -0.00000630,  -0.00000024
  4.47108330,   0.00000061,   0.00000046,   0.99998650,  -0.00000001,  -0.00000026,  -0.00000001,  -0.00002041,  -0.00002128,   0.00005620,  -0.00000000,  -0.00000630,  -0.00000024
  4.53766670,   0.00000088,   0.00000060,   0.99997839,  -0.00000001,  -0.00000041,  -0.00000001,  -0.00002041,  -0.00002128,   0.00005621,  -0.00000000,  -0.00000631,  -0.00000024
  4.60425000,   0.00000054,   0.00000040,   0.99998839,  -0.00000001,  -0.00000025,  -0.00000001,  -0.00002041,  -0.00002129,   0.00005621,  -0.00000000,  -0.00000631,  -0.00000024
  4.67083330,   0.00000235,   0.00000157,   0.99993323,  -0.00000001,  -0.00000101,  -0.00000002,  -0.00002042,  -0.00002129,   0.00005622,  -0.00000000,  -0.00000631,  -0.00000024
  4.73741670,   0.00000054,   0.00000042,   0.99998838,  -0.00000001,  -0.00000023,  -0.00000001,  -0.00002042,  -0.00002129,   0.00005622,  -0.00000000,  -0.00000631,  -0.00000024
  4.80400000,   0.00000058,   0.00000043,   0.99998729,  -0.00000001,  -0.00000026,  -0.00000001,  -0.00002042,  -0.00002130,   0.00005623,  -0.00000000,  -0.00000632,  -0.00000024
  4.87058330,   0.00000034,   0.00000035,   0.99999388,  -0.00000001,  -0.00000009,  -0.00000001,  -0.00002042,  -0.00002130,   0.00005623,   0.00000000,  -0.00000632,  -0.00000024
  4.93716670,   0.00000064,   0.00000048,   0.99998543,  -0.00000001,  -0.00000027,  -0.00000001,  -0.00002043,  -0.00002130,   0.00005624,   0.00000000,  -0.00000632,  -0.00000024
  5.00375000,  -0.00000117,  -0.00000058,   1.00004080,  -0.00000002,   0.00000060,  -0.00000002,  -0.00002043,  -0.00002130,   0.00005625,   0.00000000,  -0.00000632,  -0.00000024
  5.07033330,   0.00000066,   0.00000049,   0.99998489,  -0.00000001,  -0.00000028,  -0.00000001,  -0.00002043,  -0.00002131,   0.00005625,   0.00000000,  -0.00000633,  -0.00000024
  5.13691670,   0.00000088,   0.00000061,   0.99997847,  -0.00000001,  -0.00000041,  -0.00000000,  -0.00002043,  -0.00002131,   0.00005625,   0.00000000,  -0.00000633,  -0.00000024
  5.20350000,   0.00000053,   0.00000040,   0.99998891,  -0.00000001,  -0.00000024,  -0.00000001,  -0.00002043,  -0.00002131,   0.00005626,   0.00000000,  -0.00000633,  -0.00000024
  5.27008330,   0.00000060,   0.00000045,   0.99998675,  -0.00000001,  -0.00000026,  -0.00000001,  -0.00002044,  -0.00002131,   0.00005626,   0.00000000,  -0.00000633,  -0.00000024
  5.33666670,   0.00000009,   0.00000017,   1.00000110,  -0.00000001,  -0.00000001,  -0.00000001,  -0.00002044,  -0.00002132,   0.00005627,   0.00000000,  -0.00000634,  -0.00000024
  5.40325000,   0.00000037,   0.00000032,   0.99999346,  -0.00000001,  -0.00000015,  -0.00000001,  -0.00002044,  -0.00002132,   0.00005627,   0.00000000,  -0.00000634,  -0.00000024
  5.46983330,   0.00000063,   0.00000046,   0.99998609,  -0.00000001,  -0.00000028,  -0.00000001,  -0.00002044,  -0.00002132,   0.00005628,   0.00000000,  -0.00000634,  -0.00000024
  5.53641670,  -0.00000089,  -0.00000041,   1.00003080,  -0.00000001,   0.00000045,  -0.00000001,  -0.00002045,  -0.00002132,   0.00005628,   0.00000000,  -0.00000634,  -0.00000024
  5.60300000,   0.00000011,   0.00000013,   1.00000100,  -0.00000001,  -0.00000001,  -0.00000002,  -0.00002045,  -0.00002133,   0.00005629,   0.00000000,  -0.00000635,  -0.00000024
  5.66958330,   0.00000045,   0.00000035,   0.99999115,  -0.00000001,  -0.00000020,  -0.00000001,  -0.00002045,  -0.00002133,   0.00005629,   0.00000000,  -0.00000635,  -0.00000024
  5.73616670,   0.00000051,   0.00000039,   0.99998936,  -0.00000001,  -0.00000023,  -0.00000001,  -0.00002045,  -0.00002133,   0.00005630,   0.00000000,  -0.00000635,  -0.00000024
  5.80275000,   0.00000058,   0.00000047,   0.99998641,  -0.00000001,  -0.00000022,  -0.00000001,  -0.00002045,  -0.00002133,   0.00005630,   0.00000000,  -0.00000635,  -0.00000024
  5.86933330,   0.00000049,   0.00000039,   0.99998979,  -0.00000001,  -0.00000021,  -0.00000001,  -0.00002046,  -0.00002134,   0.00005631,   0.00000000,  -0.00000635,  -0.00000024
  5.93591670,   0.00000151,   0.00000104,   0.99995850,  -0.00000001,  -0.00000063,  -0.00000001,  -0.00002046,  -0.00002134,   0.00005631,   0.00000000,  -0.00000636,  -0.00000024
  6.00250000,   0.00000052,   0.00000040,   0.99998893,  -0.00000001,  -0.00000022,  -0.00000001,  -0.00002046,  -0.00002134,   0.00005631,   0.00000000,  -0.00000636,  -0.00000024
  6.06908330,   0.00000059,   0.00000044,   0.99998716,  -0.00000001,  -0.00000026,  -0.00000001,  -0.00002046,  -0.00002134,   0.00005632,   0.00000000,  -0.00000636,  -0.00000024
  6.13566670,   0.00000021,   0.00000025,   0.99999759,  -0.00000001,  -0.00000005,  -0.00000001,  -0.00002046,  -0.00002134,   0.00005632,   0.00000000,  -0.00000636,  -0.00000024
  6.20225000,   0.00000061,   0.00000046,   0.99998633,  -0.00000001,  -0.00000026,  -0.00000001,  -0.00002047,  -0.00002135,   0.00005633,   0.00000000,  -0.00000637,  -0.00000024
  6.26883330,  -0.00000150,  -0.00000082,   1.00004930,  -0.00000001,   0.00000071,  -0.00000002,  -0.00002047,  -0.00002135,   0.00005634,   0.00000000,  -0.00000637,  -0.00000024
  6.33541670,  -0.00000006,   0.00000005,   1.00000580,  -0.00000001,   0.00000004,  -0.00000002,  -0.00002047,  -0.00002135,   0.00005634,   0.00000000,  -0.00000637,  -0.00000024
  6.40200000,   0.00000041,   0.00000033,   0.99999242,  -0.00000001,  -0.00000018,  -0.00000001,  -0.00002047,  -0.00002135,   0.00005634,   0.00000000,  -0.00000637,  -0.00000024
  6.46858330,   0.00000051,   0.00000039,   0.99998953,  -0.00000001,  -0.00000023,  -0.00000001,  -0.00002048,  -0.00002136,   0.00005635,   0.00000000,  -0.00000637,  -0.00000024
  6.53516670,   0.00000042,   0.00000036,   0.99999101,  -0.00000001,  -0.00000016,  -0.00000001,  -0.00002048,  -0.00002136,   0.00005635,   0.00000000,  -0.00000638,  -0.00000024
  6.60175000,   0.00000064,   0.00000048,   0.99998525,  -0.00000001,  -0.00000028,  -0.00000001,  -0.00002048,  -0.00002136,   0.00005636,   0.00000000,  -0.00000638,  -0.00000024
  6.66833330,   0.00000054,   0.00000041,   0.99998850,  -0.00000001,  -0.00000024,  -0.00000001,  -0.00002048,  -0.00002136,   0.00005636,   0.00000000,  -0.00000638,  -0.00000024
  6.73491670,   0.00000125,   0.00000090,   0.99996602,  -0.00000001,  -0.00000053,  -0.00000001,  -0.00002049,  -0.00002136,   0.00005636,   0.00000000,  -0.00000638,  -0.00000024
  6.80150000,   0.00000069,   0.00000050,   0.99998350,  -0.00000001,  -0.00000029,  -0.00000001,  -0.00002049,  -0.00002137,   0.00005637,   0.00000000,  -0.00000638,  -0.00000024
  6.86808330,   0.00000060,   0.00000044,   0.99998674,  -0.00000001,  -0.00000026,  -0.00000001,  -0.00002049,  -0.00002137,   0.00005638,   0.00000000,  -0.00000639,  -0.00000024
  6.93466670,   0.00000096,   0.00000068,   0.99997478,  -0.00000001,  -0.00000039,  -0.00000002,  -0.00002049,  -0.00002137,   0.00005638,   0.00000000,  -0.00000639,  -0.00000024
  7.00125000,   0.00000043,   0.00000034,   0.99999165,  -0.00000001,  -0.00000018,  -0.00000001,  -0.00002050,  -0.00002137,   0.00005638,   0.00000000,  -0.00000639,  -0.00000024
  7.06783330,   0.00000063,   0.00000046,   0.99998596,  -0.00000001,  -0.00000028,  -0.00000001,  -0.00002050,  -0.00002137,   0.00005639,   0.00000000,  -0.00000639,  -0.00000024
  7.13441670,  -0.00000062,  -0.00000030,   1.00002240,  -0.00000001,   0.00000030,  -0.00000002,  -0.00002050,  -0.00002138,   0.00005640,   0.00000000,  -0.00000639,  -0.00000024
  7.20100000,   0.00000061,   0.00000045,   0.99998633,  -0.00000001,  -0.00000026,  -0.00000001,  -0.00002050,  -0.00002138,   0.00005640,   0.00000000,  -0.00000639,  -0.00000024
  7.26758330,   0.00000068,   0.00000050,   0.99998459,  -0.00000001,  -0.00000031,  -0.00000001,  -0.00002050,  -0.00002138,   0.00005640,   0.00000000,  -0.00000640,  -0.00000024
  7.33416670,  -0.00000025,  -0.00000005,   1.00000960,  -0.00000001,   0.00000014,  -0.00000002,  -0.00002051,  -0.00002138,   0.00005641,   0.00000000,  -0.00000640,  -0.00000024
  7.40075000,   0.00000085,   0.00000061,   0.99997877,  -0.00000001,  -0.00000036,  -0.00000001,  -0.00002051,  -0.00002138,   0.00005641,   0.00000000,  -0.00000640,  -0.00000024
  7.46733330,   0.00000051,   0.00000039,   0.99998945,  -0.00000001,  -0.00000023,  -0.00000001,  -0.00002051,  -0.00002139,   0.00005642,   0.00000000,  -0.00000640,  -0.00000024
  7.53391670,   0.00000258,   0.00000174,   0.99992517,  -0.00000001,  -0.00000112,  -0.00000001,  -0.00002051,  -0.00002139,   0.00005642,   0.00000000,  -0.00000640,  -0.00000024
  7.60050000,   0.00000049,   0.00000038,   0.99998954,  -0.00000001,  -0.00000021,  -0.00000001,  -0.00002052,  -0.00002139,   0.00005643,   0.00000000,  -0.00000641,  -0.00000024
  7.66708330,   0.00000022,   0.00000021,   0.99999859,  -0.00000001,  -0.00000010,  -0.00000001,  -0.00002052,  -0.00002139,   0.00005643,   0.00000000,  -0.00000641,  -0.00000024
  7.73366670,   0.00000066,   0.00000048,   0.99998510,  -0.00000001,  -0.00000029,  -0.00000001,  -0.00002052,  -0.00002139,   0.00005643,   0.00000000,  -0.00000641,  -0.00000024
  7.80025000,   0.00000054,   0.00000041,   0.99998832,  -0.00000001,  -0.00000024,  -0.00000001,  -0.00002052,  -0.00002139,   0.00005644,   0.00000000,  -0.00000641,  -0.00000024
  7.86683330,   0.00000124,   0.00000089,   0.99996717,  -0.00000001,  -0.00000053,  -0.00000001,  -0.00002053,  -0.00002140,   0.00005644,   0.00000000,  -0.00000641,  -0.00000024
  7.93341670,   0.00000054,   0.00000042,   0.99998840,  -0.00000001,  -0.00000023,  -0.00000001,  -0.00002053,  -0.00002140,   0.00005645,   0.00000000,  -0.00000641,  -0.00000024
  8.00000000,   0.00000058,   0.00000043,   0.99998725,  -0.00000001,  -0.00000026,  -0.00000001,  -0.00002053,  -0.00002140,   0.00005645,   0.00000000,  -0.00000642,  -0.00000024
  8.00025000,   0.00000161,   0.00000148,   0.97498390,   0.00000003,  -0.00000036,  -0.00000004,  -0.00002012,  -0.00002093,   0.00005518,   0.00000000,  -0.00000630,  -0.00000024
  8.00050000,  -0.00000083,  -0.00000091,   0.94998517,  -0.00000002,  -0.00000031,  -0.00000002,  -0.00001969,  -0.00002044,   0.00005387,   0.00000000,  -0.00000617,  -0.00000023
  8.00075000,  -0.00000027,  -0.00000649,   0.92499944,  -0.00000005,  -0.00000199,   0.00000000,  -0.00001925,  -0.00001993,   0.00005256,   0.00000000,  -0.00000604,  -0.00000023
  8.00100000,  -0.00000100,  -0.00000418,   0.89998396,  -0.00000008,  -0.00000112,  -0.00000001,  -0.00001880,  -0.00001942,   0.00005123,   0.00000000,  -0.00000591,  -0.00000022
  8.00125000,  -0.00000139,  -0.00000246,   0.87498805,  -0.00000007,  -0.00000040,  -0.00000001,  -0.00001836,  -0.00001891,   0.00004991,   0.00000000,  -0.00000577,  -0.00000022
  8.00150000,  -0.00000030,  -0.00000108,   0.84998558,  -0.00000005,  -0.00000036,  -0.00000001,  -0.00001792,  -0.00001840,   0.00004858,   0.00000000,  -0.00000564,  -0.00000021
  8.00175000,   0.00000169,   0.00000417,   0.82491175,  -0.00000002,  -0.00000080,  -0.00000000,  -0.00001747,  -0.00001788,   0.00004725,   0.00000000,  -0.00000551,  -0.00000021
  8.00200000,   0.00000033,   0.00000107,   0.79999694,  -0.00000001,  -0.00000001,  -0.00000001,  -0.00001703,  -0.00001736,   0.00004593,   0.00000000,  -0.00000537,  -0.00000020
  8.00225000,   0.00000203,   0.00000066,   0.77499040,   0.00000001,  -0.00000043,  -0.00000001,  -0.00001658,  -0.00001684,   0.00004460,   0.00000000,  -0.00000524,  -0.00000019
  8.00250000,   0.00000145,   0.00000116,   0.74999443,   0.00000001,  -0.00000022,  -0.00000001,  -0.00001614,  -0.00001633,   0.00004327,   0.00000000,  -0.00000510,  -0.00000019
  8.00275000,   0.00000372,   0.00000310,   0.72493911,   0.00000002,  -0.00000104,  -0.00000001,  -0.00001569,  -0.00001581,   0.00004194,   0.00000000,  -0.00000497,  -0.00000018
  8.00300000,   0.00000129,   0.00000112,   0.69999321,   0.00000002,  -0.00000025,  -0.00000001,  -0.00001525,  -0.00001529,   0.00004061,   0.00000000,  -0.00000484,  -0.00000018
  8.00325000,   0.00000124,   0.00000092,   0.67499017,   0.00000001,  -0.00000029,  -0.00000001,  -0.00001481,  -0.00001477,   0.00003928,   0.00000000,  -0.00000470,  -0.00000017
  8.00350000,   0.00000025,   0.00000032,   0.65000449,   0.00000001,  -0.00000006,  -0.00000001,  -0.00001437,  -0.00001425,   0.00003795,   0.00000000,  -0.00000457,  -0.00000017
  8.00375000,   0.00000056,   0.00000041,   0.62499315,  -0.00000000,  -0.00000024,  -0.00000001,  -0.00001392,  -0.00001373,   0.00003662,   0.00000000,  -0.00000444,  -0.00000016
  8.00400000,   0.00000029,   0.00000019,   0.59999592,  -0.00000000,  -0.00000020,  -0.00000001,  -0.00001348,  -0.00001322,   0.00003529,   0.00000000,  -0.00000430,  -0.00000016
  8.00425000,   0.00000188,   0.00000143,   0.57495484,  -0.00000002,  -0.00000076,  -0.00000000,  -0.00001303,  -0.00001270,   0.00003396,   0.00000000,  -0.00000417,  -0.00000015
  8.00450000,   0.00000020,   0.00000013,   0.54999368,  -0.00000001,  -0.00000024,  -0.00000001,  -0.00001259,  -0.00001218,   0.00003264,   0.00000000,  -0.00000403,  -0.00000014
  8.00475000,   0.00000032,   0.00000014,   0.52499294,  -0.00000001,  -0.00000026,  -0.00000001,  -0.00001215,  -0.00001166,   0.00003131,   0.00000000,  -0.00000390,  -0.00000014
  8.00500000,  -0.00000013,  -0.00000007,   0.50000392,  -0.00000001,  -0.00000009,  -0.00000001,  -0.00001170,  -0.00001114,   0.00002998,   0.00000000,  -0.00000377,  -0.00000013
  8.00525000,   0.00000050,   0.00000035,   0.47499295,  -0.00000001,  -0.00000027,  -0.00000001,  -0.00001126,  -0.00001062,   0.00002865,   0.00000000,  -0.00000363,  -0.00000013
  8.00550000,   0.00000057,   0.00000040,   0.44999390,  -0.00000001,  -0.00000027,  -0.00000001,  -0.00001081,  -0.00001010,   0.00002732,   0.00000000,  -0.00000350,  -0.00000012
  8.00575000,   0.00000063,   0.00000047,   0.42499366,  -0.00000001,  -0.00000027,  -0.00000001,  -0.00001037,  -0.00000958,   0.00002599,   0.00000000,  -0.00000336,  -0.00000012
  8.00600000,   0.00000043,   0.00000034,   0.39999965,  -0.00000001,  -0.00000019,  -0.00000001,  -0.00000993,  -0.00000906,   0.00002466,   0.00000000,  -0.00000323,  -0.00000011
  8.00625000,   0.00000069,   0.00000051,   0.37499429,  -0.00000001,  -0.00000027,  -0.00000001,  -0.00000948,  -0.00000855,   0.00002333,   0.00000000,  -0.00000310,  -0.00000011
  8.00650000,  -0.00000067,  -0.00000038,   0.35002527,  -0.00000001,   0.00000021,  -0.00000001,  -0.00000904,  -0.00000803,   0.00002200,   0.00000000,  -0.00000296,  -0.00000010
  8.00675000,   0.00000061,   0.00000046,   0.32499624,  -0.00000001,  -0.00000025,  -0.00000001,  -0.00000859,  -0.00000751,   0.00002067,   0.00000000,  -0.00000283,  -0.00000009
  8.00700000,   0.00000062,   0.00000046,   0.29999573,  -0.00000001,  -0.00000026,  -0.00000001,  -0.00000815,  -0.00000699,   0.00001934,   0.00000000,  -0.00000269,  -0.00000009
  8.00725000,   0.00000063,   0.00000044,   0.27499559,  -0.00000001,  -0.00000028,  -0.00000001,  -0.00000771,  -0.00000647,   0.00001801,   0.00000000,  -0.00000256,  -0.00000008
  8.00750000,   0.00000072,   0.00000051,   0.24999366,  -0.00000001,  -0.00000032,  -0.00000001,  -0.00000726,  -0.00000595,   0.00001668,   0.00000000,  -0.00000242,  -0.00000008
  8.00775000,   0.00000053,   0.00000040,   0.22499806,  -0.00000001,  -0.00000024,  -0.00000001,  -0.00000682,  -0.00000543,   0.00001535,   0.00000000,  -0.00000229,  -0.00000007
  8.00800000,   0.00000055,   0.00000041,   0.19999815,  -0.00000001,  -0.00000025,  -0.00000001,  -0.00000637,  -0.00000491,   0.00001402,   0.00000000,  -0.00000216,  -0.00000007
  8.00825000,   0.00000052,   0.00000039,   0.17499919,  -0.00000001,  -0.00000023,  -0.00000001,  -0.00000593,  -0.00000439,   0.00001269,   0.00000000,  -0.00000202,  -0.00000006
  8.00850000,   0.00000049,   0.00000037,   0.15000026,  -0.00000001,  -0.00000022,  -0.00000001,  -0.00000549,  -0.00000387,   0.00001136,   0.00000000,  -0.00000189,  -0.00000006
  8.00875000,   0.00000064,   0.00000047,   0.12499705,  -0.00000001,  -0.00000027,  -0.00000001,  -0.00000504,  -0.00000335,   0.00001003,   0.00000000,  -0.00000175,  -0.00000005
  8.00900000,   0.00000055,   0.00000041,   0.09999956,  -0.00000001,  -0.00000024,  -0.00000001,  -0.00000460,  -0.00000283,   0.00000870,   0.00000000,  -0.00000162,  -0.00000004
  8.00925000,   0.00000060,   0.00000045,   0.07499866,  -0.00000001,  -0.00000026,  -0.00000001,  -0.00000415,  -0.00000231,   0.00000736,   0.00000000,  -0.00000149,  -0.00000004
  8.00950000,   0.00000059,   0.00000044,   0.04999912,  -0.00000001,  -0.00000026,  -0.00000001,  -0.00000371,  -0.00000179,   0.00000603,   0.00000000,  -0.00000135,  -0.00000003
  8.00975000,   0.00000056,   0.00000042,   0.02500016,  -0.00000001,  -0.00000025,  -0.00000001,  -0.00000326,  -0.00000127,   0.00000470,   0.00000000,  -0.00000122,  -0.00000003
  8.01000000,   0.00000058,   0.00000043,   0.00000001,  -0.00000001,  -0.00000026,  -0.00000001,  -0.00000282,  -0.00000075,   0.00000337,   0.00000000,  -0.00000108,  -0.00000002
  8.14316670,   0.00000058,   0.00000043,   0.00000003,  -0.00000001,  -0.00000026,  -0.00000001,  -0.00000211,  -0.00000050,   0.00000252,   0.00000000,  -0.00000087,  -0.00000002
  8.27633330,   0.00000058,   0.00000043,  -0.00000001,  -0.00000001,  -0.00000026,  -0.00000001,  -0.00000162,  -0.00000046,   0.00000201,   0.00000000,  -0.00000074,  -0.00000002
  8.40950000,   0.00000058,   0.00000043,   0.00000003,  -0.00000001,  -0.00000026,  -0.00000001,  -0.00000125,  -0.00000043,   0.00000164,   0.00000000,  -0.00000064,  -0.00000001
  8.54266670,   0.00000058,   0.00000043,   0.00000007,  -0.00000001,  -0.00000025,  -0.00000001,  -0.00000098,  -0.00000040,   0.00000136,   0.00000000,  -0.00000056,  -0.00000001
  8.67583330,   0.00000058,   0.00000043,  -0.00000000,  -0.00000001,  -0.00000026,  -0.00000001,  -0.00000079,  -0.00000038,   0.00000116,   0.00000000,  -0.00000050,  -0.00000001
  8.80900000,   0.00000058,   0.00000043,   0.00000001,  -0.00000001,  -0.00000026,  -0.00000001,  -0.00000064,  -0.00000037,   0.00000101,   0.00000000,  -0.00000046,  -0.00000001
  8.94216670,   0.00000058,   0.00000043,   0.00000002,  -0.00000001,  -0.00000026,  -0.00000001,  -0.00000054,  -0.00000036,   0.00000090,   0.00000000,  -0.00000042,  -0.00000001
  9.07533330,   0.00000058,   0.00000043,   0.00000002,  -0.00000001,  -0.00000026,  -0.00000001,  -0.00000046,  -0.00000035,   0.00000082,   0.00000000,  -0.00000040,  -0.00000001
  9.20850000,   0.00000058,   0.00000043,  -0.00000001,  -0.00000001,  -0.00000026,  -0.00000001,  -0.00000040,  -0.00000034,   0.00000075,   0.00000000,  -0.00000037,  -0.00000001
  9.34166670,   0.00000058,   0.00000043,   0.00000003,  -0.00000001,  -0.00000025,  -0.00000001,  -0.00000036,  -0.00000033,   0.00000071,   0.00000000,  -0.00000035,  -0.00000001
  9.47483330,   0.00000058,   0.00000043,   0.00000001,  -0.00000001,  -0.00000026,  -0.00000001,  -0.00000033,  -0.00000032,   0.00000067,   0.00000000,  -0.00000034,  -0.00000001
  9.60800000,   0.00000058,   0.00000043,  -0.00000000,  -0.00000001,  -0.00000026,  -0.00000001,  -0.00000031,  -0.00000031,   0.00000065,   0.00000000,  -0.00000033,  -0.00000001
  9.74116670,   0.00000058,   0.00000043,  -0.00000002,  -0.00000001,  -0.00000026,  -0.00000001,  -0.00000030,  -0.00000031,   0.00000063,   0.00000000,  -0.00000031,  -0.00000001
  9.87433330,   0.00000058,   0.00000043,   0.00000004,  -0.00000001,  -0.00000025,  -0.00000001,  -0.00000029,  -0.00000030,   0.00000061,   0.00000000,  -0.00000030,  -0.00000001
 10.00750000,   0.00000058,   0.00000044,  -0.00000009,  -0.00000001,  -0.00000026,  -0.00000001,  -0.00000028,  -0.00000029,   0.00000060,   0.00000000,  -0.00000030,  -0.00000001
 10.14066700,   0.00000058,   0.00000044,   0.00000000,  -0.00000001,  -0.00000026,  -0.00000001,  -0.00000028,  -0.00000029,   0.00000059,   0.00000000,  -0.00000029,  -0.00000001
 10.27383300,   0.00000058,   0.00000044,  -0.00000002,  -0.00000001,  -0.00000026,  -0.00000001,  -0.00000028,  -0.00000028,   0.00000058,   0.00000000,  -0.00000028,  -0.00000001
 10.40700000,   0.00000058,   0.00000043,   0.00000004,  -0.00000001,  -0.00000025,  -0.00000001,  -0.00000027,  -0.00000028,   0.00000058,   0.00000000,  -0.00000027,  -0.00000001
 10.54016700,   0.00000058,   0.00000043,   0.00000002,  -0.00000001,  -0.00000026,  -0.00000001,  -0.00000027,  -0.00000027,   0.00000057,   0.00000000,  -0.00000027,  -0.00000001
 10.67333300,   0.00000058,   0.00000043,   0.00000003,  -0.00000001,  -0.00000025,  -0.00000001,  -0.00000027,  -0.00000027,   0.00000057,   0.00000000,  -0.00000026,  -0.00000001
 10.80650000,   0.00000058,   0.00000043,   0.00000003,  -0.00000001,  -0.00000025,  -0.00000001,  -0.00000027,  -0.00000026,   0.00000056,   0.00000000,  -0.00000026,  -0.00000001
 10.93966700,   0.00000058,   0.00000043,   0.00000001,  -0.00000001,  -0.00000026,  -0.00000001,  -0.00000028,  -0.00000026,   0.00000056,   0.00000000,  -0.00000025,  -0.00000001
 11.07283300,   0.00000058,   0.00000043,   0.00000004,  -0.00000001,  -0.00000025,  -0.00000001,  -0.00000028,  -0.00000026,   0.00000056,   0.00000000,  -0.00000025,  -0.00000001
 11.20600000,   0.00000058,   0.00000043,   0.00000001,  -0.00000001,  -0.00000026,  -0.00000001,  -0.00000028,  -0.00000025,   0.00000055,   0.00000000,  -0.00000024,  -0.00000001
 11.33916700,   0.00000058,   0.00000043,   0.00000001,  -0.00000001,  -0.00000026,  -0.00000001,  -0.00000028,  -0.00000025,   0.00000055,   0.00000000,  -0.00000024,  -0.00000000
 11.47233300,   0.00000058,   0.00000043,   0.00000001,  -0.00000001,  -0.00000026,  -0.00000001,  -0.00000028,  -0.00000024,   0.00000055,   0.00000000,  -0.00000023,  -0.00000000
 11.60550000,   0.00000058,   0.00000043,   0.00000002,  -0.00000001,  -0.00000026,  -0.00000001,  -0.00000028,  -0.00000024,   0.00000055,   0.00000000,  -0.00000023,  -0.00000000
 11.73866700,   0.00000058,   0.00000043,   0.00000001,  -0.00000001,  -0.00000026,  -0.00000001,  -0.00000028,  -0.00000024,   0.00000054,   0.00000000,  -0.00000023,  -0.00000000
 11.87183300,   0.00000058,   0.00000043,   0.00000001,  -0.00000001,  -0.00000026,  -0.00000001,  -0.00000029,  -0.00000023,   0.00000054,   0.00000000,  -0.00000022,  -0.00000000
 12.00500000,   0.00000058,   0.00000043,   0.00000001,  -0.00000001,  -0.00000026,  -0.00000001,  -0.00000029,  -0.00000023,   0.00000054,   0.00000000,  -0.00000022,  -0.00000000
 12.13816700,   0.00000058,   0.00000043,   0.00000000,  -0.00000001,  -0.00000026,  -0.00000001,  -0.00000029,  -0.00000023,   0.00000054,   0.00000000,  -0.00000021,  -0.00000000
 12.27133300,   0.00000058,   0.00000043,   0.00000000,  -0.00000001,  -0.00000026,  -0.00000001,  -0.00000029,  -0.00000022,   0.00000053,   0.00000000,  -0.00000021,  -0.00000000
 12.40450000,   0.00000058,   0.00000043,   0.00000001,  -0.00000001,  -0.00000026,  -0.00000001,  -0.00000029,  -0.00000022,   0.00000053,   0.00000000,  -0.00000021,  -0.00000000
 12.53766700,   0.00000058,   0.00000043,   0.00000001,  -0.00000001,  -0.00000026,  -0.00000001,  -0.00000029,  -0.00000022,   0.00000053,   0.00000000,  -0.00000020,  -0.00000000
 12.67083300,   0.00000058,   0.00000043,   0.00000001,  -0.00000001,  -0.00000026,  -0.00000001,  -0.00000029,  -0.00000021,   0.00000053,   0.00000000,  -0.00000020,  -0.00000000
 12.80400000,   0.00000058,   0.00000043,   0.00000001,  -0.00000001,  -0.00000026,  -0.00000001,  -0.00000029,  -0.00000021,   0.00000053,   0.00000000,  -0.00000020,  -0.00000000
 12.93716700,   0.00000058,   0.00000043,   0.00000000,  -0.00000001,  -0.00000026,  -0.00000001,  -0.00000029,  -0.00000021,   0.00000052,   0.00000000,  -0.00000020,  -0.00000000
 13.07033300,   0.00000058,   0.00000043,   0.00000001,  -0.00000001,  -0.00000026,  -0.00000001,  -0.00000030,  -0.00000021,   0.00000052,   0.00000000,  -0.00000019,  -0.00000000
 13.20350000,   0.00000058,   0.00000043,   0.00000001,  -0.00000001,  -0.00000026,  -0.00000001,  -0.00000030,  -0.00000020,   0.00000052,   0.00000000,  -0.00000019,  -0.00000000
 13.33666700,   0.00000058,   0.00000043,   0.00000000,  -0.00000001,  -0.00000026,  -0.00000001,  -0.00000030,  -0.00000020,   0.00000052,   0.00000000,  -0.00000019,  -0.00000000
 13.46983300,   0.00000058,   0.00000043,   0.00000001,  -0.00000001,  -0.00000026,  -0.00000001,  -0.00000030,  -0.00000020,   0.00000052,   0.00000000,  -0.00000018,  -0.00000000
 13.60300000,   0.00000058,   0.00000043,   0.00000001,  -0.00000001,  -0.00000026,  -0.00000001,  -0.00000030,  -0.00000020,   0.00000052,   0.00000000,  -0.00000018,  -0.00000000
 13.73616700,   0.00000058,   0.00000043,   0.00000001,  -0.00000001,  -0.00000026,  -0.00000001,  -0.00000030,  -0.00000019,   0.00000051,   0.00000000,  -0.00000018,  -0.00000000
 13.86933300,   0.00000058,   0.00000043,   0.00000000,  -0.00000001,  -0.00000026,  -0.00000001,  -0.00000030,  -0.00000019,   0.00000051,   0.00000000,  -0.00000018,  -0.00000000
 14.00250000,   0.00000058,   0.00000043,   0.00000001,  -0.00000001,  -0.00000026,  -0.00000001,  -0.00000030,  -0.00000019,   0.00000051,   0.00000000,  -0.00000018,  -0.00000000
 14.13566700,   0.00000058,   0.00000043,   0.00000001,  -0.00000001,  -0.00000026,  -0.00000001,  -0.00000030,  -0.00000019,   0.00000051,   0.00000000,  -0.00000017,  -0.00000000
 14.26883300,   0.00000058,   0.00000043,   0.00000000,  -0.00000001,  -0.00000026,  -0.00000001,  -0.00000030,  -0.00000018,   0.00000051,   0.00000000,  -0.00000017,  -0.00000000
 14.40200000,   0.00000058,   0.00000043,   0.00000000,  -0.00000001,  -0.00000026,  -0.00000001,  -0.00000030,  -0.00000018,   0.00000050,   0.00000000,  -0.00000017,  -0.00000000
 14.53516700,   0.00000058,   0.00000043,   0.00000001,  -0.00000001,  -0.00000026,  -0.00000001,  -0.00000030,  -0.00000018,   0.00000050,   0.00000000,  -0.00000017,  -0.00000000
 14.66833300,   0.00000058,   0.00000043,   0.00000001,  -0.00000001,  -0.00000026,  -0.00000001,  -0.00000030,  -0.00000018,   0.00000050,   0.00000000,  -0.00000016,  -0.00000000
 14.80150000,   0.00000058,   0.00000043,   0.00000000,  -0.00000001,  -0.00000026,  -0.00000001,  -0.00000030,  -0.00000018,   0.00000050,   0.00000000,  -0.00000016,  -0.00000000
 14.93466700,   0.00000058,   0.00000043,   0.00000001,  -0.00000001,  -0.00000026,  -0.00000001,  -0.00000030,  -0.00000017,   0.00000050,   0.00000000,  -0.00000016,  -0.00000000
 15.06783300,   0.00000058,   0.00000043,   0.00000000,  -0.00000001,  -0.00000026,  -0.00000001,  -0.00000030,  -0.00000017,   0.00000050,   0.00000000,  -0.00000016,  -0.00000000
 15.20100000,   0.00000058,   0.00000043,   0.00000001,  -0.00000001,  -0.00000026,  -0.00000001,  -0.00000030,  -0.00000017,   0.00000049,   0.00000000,  -0.00000016,  -0.00000000
 15.33416700,   0.00000058,   0.00000043,   0.00000000,  -0.00000001,  -0.00000026,  -0.00000001,  -0.00000030,  -0.00000017,   0.00000049,   0.00000000,  -0.00000016,  -0.00000000
 15.46733300,   0.00000058,   0.00000043,   0.00000001,  -0.00000001,  -0.00000026,  -0.00000001,  -0.00000030,  -0.00000017,   0.00000049,   0.00000000,  -0.00000015,  -0.00000000
 15.60050000,   0.00000058,   0.00000043,   0.00000001,  -0.00000001,  -0.00000026,  -0.00000001,  -0.00000030,  -0.00000017,   0.00000049,   0.00000000,  -0.00000015,  -0.00000000
 15.73366700,   0.00000058,   0.00000043,   0.00000001,  -0.00000001,  -0.00000026,  -0.00000001,  -0.00000030,  -0.00000016,   0.00000049,   0.00000000,  -0.00000015,  -0.00000000
 15.86683300,   0.00000058,   0.00000043,   0.00000001,  -0.00000001,  -0.00000026,  -0.00000001,  -0.00000030,  -0.00000016,   0.00000049,   0.00000000,  -0.00000015,  -0.00000000
 16.00000000,   0.00000058,   0.00000043,   0.00000001,  -0.00000001,  -0.00000026,  -0.00000001,  -0.00000030,  -0.00000016,   0.00000048,   0.00000000,  -0.00000015,  -0.00000000
