Time (m)    , Stress_xx (MPa), Stress_yy (MPa), Stress_zz (MPa), Stress_xy (MPa), Stress_xz (MPa), Stress_yz (MPa), Strain_xx   , Strain_yy   , Strain_zz   , Strain_xy   , Strain_xz   , Strain_yz   
  0.00000000,   0.00000000,   0.00000000,   0.00000000,   0.00000000,   0.00000000,   0.00000000,   0.00000000,   0.00000000,   0.00000000,   0.00000000,   0.00000000,   0.00000000
  0.00050000,   0.05000004,  -0.00000012,   0.00000010,  -0.00000000,   0.00000000,   0.00000000,   0.00000670,  -0.00000176,  -0.00000052,   0.00000020,   0.00000004,  -0.00000001
  0.00100000,   0.09999965,   0.00000007,   0.00000046,  -0.00000001,   0.00000001,   0.00000000,   0.00001438,  -0.00000405,  -0.00000113,   0.00000044,   0.00000009,  -0.00000002
  0.00150000,   0.14999950,   0.00000015,  -0.00000060,  -0.00000001,  -0.00000001,   0.00000000,   0.00002248,  -0.00000657,  -0.00000177,   0.00000068,   0.00000015,  -0.00000002
  0.00200000,   0.19999911,   0.00000010,  -0.00000011,  -0.00000002,   0.00000000,   0.00000000,   0.00003090,  -0.00000926,  -0.00000244,   0.00000094,   0.00000020,  -0.00000003
  0.00250000,   0.24999854,  -0.00000055,  -0.00000235,  -0.00000006,  -0.00000001,   0.00000001,   0.00003956,  -0.00001207,  -0.00000312,   0.00000121,   0.00000026,  -0.00000004
  0.00300000,   0.29999831,  -0.00000103,   0.00000208,  -0.00000007,   0.00000005,   0.00000001,   0.00004842,  -0.00001499,  -0.00000382,   0.00000148,   0.00000032,  -0.00000005
  0.00350000,   0.34999810,  -0.00000165,  -0.00000207,  -0.00000010,   0.00000002,   0.00000001,   0.00005745,  -0.00001800,  -0.00000453,   0.00000176,   0.00000038,  -0.00000006
  0.00400000,   0.39999726,  -0.00000282,  -0.00000656,  -0.00000014,  -0.00000001,   0.00000000,   0.00006663,  -0.00002109,  -0.00000525,   0.00000204,   0.00000045,  -0.00000007
  0.00450000,   0.44999760,  -0.00000401,   0.00000276,  -0.00000012,   0.00000012,   0.00000000,   0.00007596,  -0.00002425,  -0.00000598,   0.00000233,   0.00000051,  -0.00000008
  0.00500000,   0.49999474,  -0.00000121,  -0.00000726,  -0.00000022,  -0.00000010,   0.00000000,   0.00008541,  -0.00002748,  -0.00000672,   0.00000262,   0.00000057,  -0.00000009
  0.00550000,   0.54999281,  -0.00000135,   0.00000933,  -0.00000017,   0.00000010,   0.00000000,   0.00009498,  -0.00003077,  -0.00000748,   0.00000292,   0.00000064,  -0.00000010
  0.00600000,   0.59999194,  -0.00000141,  -0.00001007,  -0.00000008,  -0.00000008,  -0.00000000,   0.00010466,  -0.00003412,  -0.00000824,   0.00000322,   0.00000070,  -0.00000011
  0.00650000,   0.64999338,  -0.00000236,  -0.00001121,  -0.00000006,  -0.00000009,  -0.00000001,   0.00011444,  -0.00003751,  -0.00000900,   0.00000352,   0.00000077,  -0.00000012
  0.00700000,   0.69999509,   0.00000694,  -0.00004610,   0.00000020,  -0.00000056,  -0.00000004,   0.00012432,  -0.00004096,  -0.00000978,   0.00000382,   0.00000084,  -0.00000013
  0.00750000,   0.74999255,  -0.00000208,   0.00001771,  -0.00000006,   0.00000022,   0.00000000,   0.00013429,  -0.00004446,  -0.00001056,   0.00000413,   0.00000091,  -0.00000014
  0.00800000,   0.79999702,  -0.00000144,  -0.00000326,  -0.00000015,  -0.00000004,   0.00000000,   0.00014435,  -0.00004801,  -0.00001135,   0.00000445,   0.00000098,  -0.00000016
  0.00850000,   0.84999529,  -0.00000153,   0.00001249,  -0.00000012,   0.00000014,  -0.00000000,   0.00015449,  -0.00005159,  -0.00001214,   0.00000476,   0.00000104,  -0.00000017
  0.00900000,   0.89999609,  -0.00000089,   0.00000277,  -0.00000013,   0.00000002,  -0.00000000,   0.00016471,  -0.00005522,  -0.00001294,   0.00000508,   0.00000111,  -0.00000018
  0.00950000,   0.94999565,  -0.00000100,   0.00000771,  -0.00000011,   0.00000009,  -0.00000000,   0.00017500,  -0.00005889,  -0.00001375,   0.00000540,   0.00000118,  -0.00000019
  0.01000000,   0.99999258,  -0.00001122,  -0.00002414,  -0.00000053,  -0.00000018,   0.00000000,   0.00018535,  -0.00006259,  -0.00001456,   0.00000572,   0.00000126,  -0.00000020
  0.07658333,   0.99999222,  -0.00001159,  -0.00001017,  -0.00000053,   0.00000002,  -0.00000000,   0.00023727,  -0.00009358,  -0.00001786,   0.00000751,   0.00000162,  -0.00000025
  0.14316667,   0.99999188,  -0.00001164,  -0.00003487,  -0.00000058,  -0.00000032,   0.00000001,   0.00024430,  -0.00009936,  -0.00001808,   0.00000772,   0.00000167,  -0.00000026
  0.20975000,   0.99999557,  -0.00000972,  -0.00001855,  -0.00000037,  -0.00000014,  -0.00000002,   0.00024730,  -0.00010203,  -0.00001814,   0.00000781,   0.00000169,  -0.00000026
  0.27633333,   0.99999533,  -0.00000997,  -0.00001493,  -0.00000039,  -0.00000008,  -0.00000000,   0.00024873,  -0.00010336,  -0.00001816,   0.00000785,   0.00000169,  -0.00000026
  0.34291667,   0.99999694,  -0.00000882,  -0.00004900,  -0.00000036,  -0.00000058,  -0.00000001,   0.00024944,  -0.00010403,  -0.00001817,   0.00000787,   0.00000170,  -0.00000026
  0.40950000,   0.99999753,  -0.00000857,  -0.00004590,  -0.00000034,  -0.00000054,   0.00000000,   0.00024981,  -0.00010439,  -0.00001817,   0.00000787,   0.00000170,  -0.00000026
  0.47608333,   1.00000010,  -0.00000875,  -0.00003812,  -0.00000027,  -0.00000044,   0.00000000,   0.00025001,  -0.00010459,  -0.00001817,   0.00000788,   0.00000170,  -0.00000026
  0.54266667,   1.00000360,  -0.00000693,  -0.00004992,  -0.00000016,  -0.00000070,  -0.00000001,   0.00025014,  -0.00010471,  -0.00001817,   0.00000788,   0.00000170,  -0.00000026
  0.60925000,   0.99999441,  -0.00000749,  -0.00004113,  -0.00000042,  -0.00000047,  -0.00000001,   0.00025021,  -0.00010479,  -0.00001817,   0.00000788,   0.00000170,  -0.00000026
  0.67583333,   0.99999248,  -0.00001427,  -0.00000130,  -0.00000057,   0.00000013,   0.00000001,   0.00025026,  -0.00010485,  -0.00001817,   0.00000788,   0.00000170,  -0.00000026
  0.74241667,   1.00000090,  -0.00002492,  -0.00004202,  -0.00000061,  -0.00000040,   0.00000001,   0.00025031,  -0.00010490,  -0.00001818,   0.00000789,   0.00000170,  -0.00000026
  0.80900000,   1.00001470,  -0.00004025,  -0.00007345,  -0.00000056,  -0.00000078,  -0.00000002,   0.00025036,  -0.00010495,  -0.00001818,   0.00000789,   0.00000170,  -0.00000026
  0.87558333,   0.99999001,  -0.00001189,  -0.00000969,  -0.00000063,   0.00000002,   0.00000000,   0.00025040,  -0.00010498,  -0.00001818,   0.00000789,   0.00000170,  -0.00000026
  0.94216667,   0.99998054,   0.00000039,  -0.00000773,  -0.00000066,  -0.00000006,  -0.00000000,   0.00025043,  -0.00010502,  -0.00001818,   0.00000789,   0.00000170,  -0.00000026
  1.00875000,   0.99998846,  -0.00000602,  -0.00004246,  -0.00000059,  -0.00000053,  -0.00000000,   0.00025048,  -0.00010505,  -0.00001818,   0.00000789,   0.00000170,  -0.00000026
  1.07533330,   0.99999524,  -0.00001375,  -0.00003660,  -0.00000053,  -0.00000041,  -0.00000000,   0.00025052,  -0.00010509,  -0.00001818,   0.00000789,   0.00000170,  -0.00000026
  1.14191670,   0.99999663,  -0.00001572,  -0.00001908,  -0.00000049,  -0.00000012,  -0.00000000,   0.00025055,  -0.00010513,  -0.00001818,   0.00000789,   0.00000170,  -0.00000026
  1.20850000,   0.99999701,  -0.00001795,   0.00001632,  -0.00000047,   0.00000041,   0.00000001,   0.00025059,  -0.00010516,  -0.00001818,   0.00000790,   0.00000170,  -0.00000026
  1.27508330,   0.99999357,  -0.00001246,  -0.00001382,  -0.00000051,  -0.00000003,   0.00000000,   0.00025063,  -0.00010519,  -0.00001819,   0.00000790,   0.00000170,  -0.00000026
  1.34166670,   0.99999354,  -0.00000985,  -0.00007519,  -0.00000053,  -0.00000093,   0.00000003,   0.00025066,  -0.00010522,  -0.00001819,   0.00000790,   0.00000170,  -0.00000026
  1.40825000,   0.99999276,  -0.00001114,  -0.00002923,  -0.00000053,  -0.00000028,   0.00000001,   0.00025070,  -0.00010525,  -0.00001819,   0.00000790,   0.00000170,  -0.00000026
  1.47483330,   0.99999326,  -0.00001201,  -0.00002622,  -0.00000052,  -0.00000022,   0.00000000,   0.00025073,  -0.00010528,  -0.00001820,   0.00000790,   0.00000171,  -0.00000026
  1.54141670,   0.99999320,  -0.00001121,  -0.00003946,  -0.00000052,  -0.00000041,   0.00000000,   0.00025077,  -0.00010531,  -0.00001820,   0.00000790,   0.00000171,  -0.00000026
  1.60800000,   0.99999367,  -0.00001214,  -0.00003352,  -0.00000052,  -0.00000033,  -0.00000000,   0.00025080,  -0.00010534,  -0.00001820,   0.00000790,   0.00000171,  -0.00000026
  1.67458330,   0.99999455,  -0.00001307,  -0.00003449,  -0.00000051,  -0.00000034,   0.00000000,   0.00025083,  -0.00010537,  -0.00001820,   0.00000791,   0.00000171,  -0.00000026
  1.74116670,   0.99999672,  -0.00001331,  -0.00007692,  -0.00000050,  -0.00000095,  -0.00000002,   0.00025087,  -0.00010539,  -0.00001821,   0.00000791,   0.00000171,  -0.00000026
  1.80775000,   0.99999307,  -0.00001167,  -0.00002567,  -0.00000051,  -0.00000020,   0.00000000,   0.00025090,  -0.00010542,  -0.00001821,   0.00000791,   0.00000171,  -0.00000026
  1.87433330,   0.99999263,  -0.00001107,  -0.00002694,  -0.00000051,  -0.00000022,   0.00000000,   0.00025093,  -0.00010545,  -0.00001821,   0.00000791,   0.00000171,  -0.00000026
  1.94091670,   0.99999250,  -0.00001149,  -0.00001714,  -0.00000051,  -0.00000008,   0.00000001,   0.00025096,  -0.00010547,  -0.00001821,   0.00000791,   0.00000171,  -0.00000026
  2.00750000,   0.99999307,  -0.00001246,  -0.00001213,  -0.00000051,  -0.00000001,   0.00000001,   0.00025099,  -0.00010550,  -0.00001821,   0.00000791,   0.00000171,  -0.00000026
  2.07408330,   0.99999325,  -0.00001387,   0.00001019,  -0.00000051,   0.00000031,   0.00000001,   0.00025102,  -0.00010552,  -0.00001821,   0.00000791,   0.00000171,  -0.00000026
  2.14066670,   0.99999367,  -0.00001225,  -0.00002716,  -0.00000051,  -0.00000023,   0.00000001,   0.00025105,  -0.00010555,  -0.00001822,   0.00000791,   0.00000171,  -0.00000026
  2.20725000,   0.99999399,  -0.00001176,  -0.00004412,  -0.00000051,  -0.00000048,   0.00000000,   0.00025108,  -0.00010557,  -0.00001822,   0.00000791,   0.00000171,  -0.00000026
  2.27383330,   0.99999283,  -0.00001186,  -0.00001707,  -0.00000051,  -0.00000008,   0.00000001,   0.00025111,  -0.00010560,  -0.00001822,   0.00000791,   0.00000171,  -0.00000026
  2.34041670,   0.99999293,  -0.00001152,  -0.00002531,  -0.00000051,  -0.00000019,   0.00000000,   0.00025114,  -0.00010562,  -0.00001823,   0.00000792,   0.00000171,  -0.00000026
  2.40700000,   0.99999255,  -0.00001154,  -0.00001743,  -0.00000052,  -0.00000008,   0.00000001,   0.00025117,  -0.00010564,  -0.00001823,   0.00000792,   0.00000171,  -0.00000026
  2.47358330,   0.99999265,  -0.00001218,  -0.00000850,  -0.00000052,   0.00000005,   0.00000001,   0.00025120,  -0.00010567,  -0.00001823,   0.00000792,   0.00000171,  -0.00000026
  2.54016670,   0.99999259,  -0.00001322,   0.00001166,  -0.00000052,   0.00000033,   0.00000002,   0.00025123,  -0.00010569,  -0.00001823,   0.00000792,   0.00000171,  -0.00000026
  2.60675000,   0.99999428,  -0.00001194,  -0.00004886,  -0.00000052,  -0.00000053,   0.00000001,   0.00025126,  -0.00010571,  -0.00001824,   0.00000792,   0.00000171,  -0.00000026
  2.67333330,   0.99999375,  -0.00001226,  -0.00003109,  -0.00000051,  -0.00000029,   0.00000001,   0.00025129,  -0.00010573,  -0.00001824,   0.00000792,   0.00000171,  -0.00000026
  2.73991670,   0.99999263,  -0.00001309,   0.00001195,  -0.00000052,   0.00000032,   0.00000001,   0.00025131,  -0.00010576,  -0.00001824,   0.00000792,   0.00000172,  -0.00000026
  2.80650000,   0.99999247,  -0.00001169,  -0.00001268,  -0.00000052,  -0.00000001,   0.00000002,   0.00025134,  -0.00010578,  -0.00001824,   0.00000792,   0.00000172,  -0.00000026
  2.87308330,   0.99999211,  -0.00001162,  -0.00000692,  -0.00000052,   0.00000007,   0.00000001,   0.00025137,  -0.00010580,  -0.00001825,   0.00000792,   0.00000172,  -0.00000026
  2.93966670,   0.99999121,  -0.00001256,   0.00003227,  -0.00000053,   0.00000064,  -0.00000000,   0.00025140,  -0.00010582,  -0.00001825,   0.00000792,   0.00000172,  -0.00000026
  3.00625000,   0.99999242,  -0.00001156,  -0.00001373,  -0.00000052,  -0.00000003,   0.00000000,   0.00025142,  -0.00010584,  -0.00001825,   0.00000792,   0.00000172,  -0.00000026
  3.07283330,   0.99999436,  -0.00001085,  -0.00007278,  -0.00000052,  -0.00000088,   0.00000001,   0.00025145,  -0.00010586,  -0.00001826,   0.00000792,   0.00000172,  -0.00000026
  3.13941670,   0.99999235,  -0.00001215,  -0.00000211,  -0.00000053,   0.00000012,   0.00000001,   0.00025148,  -0.00010588,  -0.00001826,   0.00000792,   0.00000172,  -0.00000026
  3.20600000,   0.99999277,  -0.00001249,  -0.00000233,  -0.00000052,   0.00000013,   0.00000000,   0.00025150,  -0.00010591,  -0.00001826,   0.00000792,   0.00000172,  -0.00000026
  3.27258330,   0.99999192,  -0.00001191,   0.00000359,  -0.00000053,   0.00000022,  -0.00000000,   0.00025153,  -0.00010593,  -0.00001826,   0.00000792,   0.00000172,  -0.00000026
  3.33916670,   0.99998971,  -0.00001341,   0.00007929,  -0.00000053,   0.00000132,  -0.00000001,   0.00025155,  -0.00010595,  -0.00001826,   0.00000793,   0.00000172,  -0.00000026
  3.40575000,   0.99999400,  -0.00001108,  -0.00005781,  -0.00000053,  -0.00000064,  -0.00000002,   0.00025158,  -0.00010596,  -0.00001827,   0.00000793,   0.00000172,  -0.00000026
  3.47233330,   0.99999272,  -0.00001131,  -0.00002542,  -0.00000053,  -0.00000020,  -0.00000000,   0.00025161,  -0.00010598,  -0.00001827,   0.00000793,   0.00000172,  -0.00000026
  3.53891670,   0.99999281,  -0.00001136,  -0.00002545,  -0.00000053,  -0.00000020,   0.00000000,   0.00025163,  -0.00010600,  -0.00001827,   0.00000793,   0.00000172,  -0.00000026
  3.60550000,   0.99999158,  -0.00001036,  -0.00001509,  -0.00000053,  -0.00000006,  -0.00000001,   0.00025166,  -0.00010602,  -0.00001827,   0.00000793,   0.00000172,  -0.00000026
  3.67208330,   0.99999040,  -0.00001098,   0.00002185,  -0.00000053,   0.00000048,  -0.00000001,   0.00025168,  -0.00010604,  -0.00001827,   0.00000793,   0.00000172,  -0.00000026
  3.73866670,   0.99999261,  -0.00001104,  -0.00002624,  -0.00000053,  -0.00000022,  -0.00000001,   0.00025171,  -0.00010606,  -0.00001828,   0.00000793,   0.00000172,  -0.00000026
  3.80525000,   0.99999353,  -0.00001174,  -0.00003647,  -0.00000053,  -0.00000037,   0.00000002,   0.00025173,  -0.00010608,  -0.00001828,   0.00000793,   0.00000172,  -0.00000026
  3.87183330,   0.99999284,  -0.00001197,  -0.00001452,  -0.00000053,  -0.00000005,   0.00000001,   0.00025176,  -0.00010610,  -0.00001828,   0.00000793,   0.00000172,  -0.00000026
  3.93841670,   0.99999300,  -0.00001152,  -0.00002662,  -0.00000053,  -0.00000022,   0.00000000,   0.00025178,  -0.00010612,  -0.00001829,   0.00000793,   0.00000172,  -0.00000026
  4.00500000,   0.99999267,  -0.00001148,  -0.00002054,  -0.00000053,  -0.00000013,   0.00000000,   0.00025181,  -0.00010614,  -0.00001829,   0.00000793,   0.00000172,  -0.00000026
  4.07158330,   0.99999395,  -0.00000937,  -0.00008842,  -0.00000053,  -0.00000111,   0.00000001,   0.00025183,  -0.00010615,  -0.00001830,   0.00000793,   0.00000172,  -0.00000026
  4.13816670,   0.99999277,  -0.00001098,  -0.00003229,  -0.00000053,  -0.00000031,   0.00000001,   0.00025185,  -0.00010617,  -0.00001830,   0.00000793,   0.00000172,  -0.00000026
  4.20475000,   0.99999130,  -0.00001299,   0.00003935,  -0.00000054,   0.00000072,   0.00000005,   0.00025187,  -0.00010619,  -0.00001829,   0.00000793,   0.00000172,  -0.00000026
  4.27133330,   0.99999245,  -0.00001182,  -0.00001014,  -0.00000053,   0.00000001,   0.00000002,   0.00025190,  -0.00010621,  -0.00001830,   0.00000793,   0.00000172,  -0.00000026
  4.33791670,   0.99999186,  -0.00001198,   0.00000470,  -0.00000053,   0.00000021,   0.00000001,   0.00025192,  -0.00010622,  -0.00001830,   0.00000794,   0.00000172,  -0.00000026
  4.40450000,   0.99999213,  -0.00001232,   0.00000642,  -0.00000053,   0.00000024,  -0.00000000,   0.00025194,  -0.00010624,  -0.00001830,   0.00000794,   0.00000172,  -0.00000026
  4.47108330,   0.99999312,  -0.00001147,  -0.00003079,  -0.00000053,  -0.00000028,  -0.00000000,   0.00025197,  -0.00010626,  -0.00001831,   0.00000794,   0.00000172,  -0.00000026
  4.53766670,   0.99999419,  -0.00001112,  -0.00006080,  -0.00000052,  -0.00000071,  -0.00000003,   0.00025199,  -0.00010627,  -0.00001831,   0.00000794,   0.00000172,  -0.00000026
  4.60425000,   0.99999270,  -0.00001168,  -0.00001757,  -0.00000052,  -0.00000009,  -0.00000001,   0.00025201,  -0.00010629,  -0.00001831,   0.00000794,   0.00000172,  -0.00000026
  4.67083330,   0.99999333,  -0.00001125,  -0.00003912,  -0.00000052,  -0.00000039,  -0.00000000,   0.00025204,  -0.00010631,  -0.00001832,   0.00000794,   0.00000172,  -0.00000026
  4.73741670,   0.99999397,  -0.00001135,  -0.00005292,  -0.00000052,  -0.00000060,  -0.00000001,   0.00025206,  -0.00010632,  -0.00001832,   0.00000794,   0.00000172,  -0.00000026
  4.80400000,   0.99999276,  -0.00001164,  -0.00001958,  -0.00000052,  -0.00000012,   0.00000000,   0.00025208,  -0.00010634,  -0.00001832,   0.00000794,   0.00000173,  -0.00000026
  4.87058330,   0.99999282,  -0.00001140,  -0.00002512,  -0.00000052,  -0.00000020,  -0.00000000,   0.00025210,  -0.00010635,  -0.00001832,   0.00000794,   0.00000173,  -0.00000026
  4.93716670,   0.99999095,  -0.00001123,   0.00001730,  -0.00000052,   0.00000040,  -0.00000000,   0.00025212,  -0.00010637,  -0.00001832,   0.00000794,   0.00000173,  -0.00000026
  5.00375000,   0.99999333,  -0.00001026,  -0.00005616,  -0.00000052,  -0.00000064,  -0.00000000,   0.00025214,  -0.00010639,  -0.00001833,   0.00000794,   0.00000173,  -0.00000026
  5.07033330,   0.99999319,  -0.00001132,  -0.00003585,  -0.00000052,  -0.00000036,   0.00000001,   0.00025217,  -0.00010640,  -0.00001833,   0.00000794,   0.00000173,  -0.00000026
  5.13691670,   0.99999307,  -0.00001145,  -0.00003009,  -0.00000052,  -0.00000028,   0.00000000,   0.00025219,  -0.00010642,  -0.00001833,   0.00000794,   0.00000173,  -0.00000026
  5.20350000,   0.99999277,  -0.00001145,  -0.00002321,  -0.00000052,  -0.00000017,  -0.00000000,   0.00025221,  -0.00010643,  -0.00001834,   0.00000795,   0.00000173,  -0.00000026
  5.27008330,   0.99999289,  -0.00001127,  -0.00002982,  -0.00000052,  -0.00000026,  -0.00000000,   0.00025223,  -0.00010645,  -0.00001834,   0.00000795,   0.00000173,  -0.00000026
  5.33666670,   0.99998969,  -0.00001194,   0.00005780,  -0.00000052,   0.00000098,  -0.00000001,   0.00025225,  -0.00010646,  -0.00001834,   0.00000795,   0.00000173,  -0.00000026
  5.40325000,   0.99999253,  -0.00001115,  -0.00002412,  -0.00000052,  -0.00000018,  -0.00000000,   0.00025227,  -0.00010648,  -0.00001834,   0.00000795,   0.00000173,  -0.00000026
  5.46983330,   0.99999341,  -0.00001155,  -0.00003971,  -0.00000052,  -0.00000042,  -0.00000000,   0.00025229,  -0.00010649,  -0.00001835,   0.00000795,   0.00000173,  -0.00000026
  5.53641670,   0.99999310,  -0.00001124,  -0.00003581,  -0.00000052,  -0.00000036,  -0.00000000,   0.00025231,  -0.00010651,  -0.00001835,   0.00000795,   0.00000173,  -0.00000026
  5.60300000,   0.99999420,  -0.00001067,  -0.00006964,  -0.00000052,  -0.00000083,  -0.00000001,   0.00025233,  -0.00010652,  -0.00001835,   0.00000795,   0.00000173,  -0.00000026
  5.66958330,   0.99999311,  -0.00001107,  -0.00003916,  -0.00000052,  -0.00000040,  -0.00000001,   0.00025235,  -0.00010653,  -0.00001836,   0.00000795,   0.00000173,  -0.00000026
  5.73616670,   0.99999128,  -0.00001234,   0.00002563,  -0.00000052,   0.00000054,   0.00000000,   0.00025237,  -0.00010655,  -0.00001836,   0.00000795,   0.00000173,  -0.00000026
  5.80275000,   0.99999366,  -0.00001104,  -0.00005062,  -0.00000052,  -0.00000055,  -0.00000001,   0.00025239,  -0.00010656,  -0.00001836,   0.00000795,   0.00000173,  -0.00000026
  5.86933330,   0.99999314,  -0.00001157,  -0.00003038,  -0.00000052,  -0.00000027,  -0.00000001,   0.00025241,  -0.00010658,  -0.00001836,   0.00000795,   0.00000173,  -0.00000026
  5.93591670,   0.99999140,  -0.00001275,   0.00003475,  -0.00000052,   0.00000067,  -0.00000002,   0.00025243,  -0.00010659,  -0.00001836,   0.00000795,   0.00000173,  -0.00000026
  6.00250000,   0.99999483,  -0.00001060,  -0.00008323,  -0.00000052,  -0.00000101,  -0.00000002,   0.00025245,  -0.00010660,  -0.00001837,   0.00000795,   0.00000173,  -0.00000026
  6.06908330,   0.99999324,  -0.00001154,  -0.00003521,  -0.00000052,  -0.00000033,  -0.00000000,   0.00025247,  -0.00010662,  -0.00001837,   0.00000795,   0.00000173,  -0.00000026
  6.13566670,   0.99999334,  -0.00001110,  -0.00004142,  -0.00000052,  -0.00000043,  -0.00000000,   0.00025249,  -0.00010663,  -0.00001837,   0.00000795,   0.00000174,  -0.00000026
  6.20225000,   0.99999262,  -0.00001142,  -0.00002088,  -0.00000053,  -0.00000014,   0.00000001,   0.00025251,  -0.00010664,  -0.00001838,   0.00000795,   0.00000174,  -0.00000026
  6.26883330,   0.99999280,  -0.00001124,  -0.00002777,  -0.00000053,  -0.00000023,   0.00000000,   0.00025252,  -0.00010666,  -0.00001838,   0.00000795,   0.00000174,  -0.00000026
  6.33541670,   0.99999331,  -0.00001118,  -0.00004075,  -0.00000053,  -0.00000042,   0.00000000,   0.00025254,  -0.00010667,  -0.00001838,   0.00000795,   0.00000174,  -0.00000026
  6.40200000,   0.99999349,  -0.00001148,  -0.00003836,  -0.00000052,  -0.00000038,  -0.00000001,   0.00025256,  -0.00010668,  -0.00001838,   0.00000796,   0.00000174,  -0.00000026
  6.46858330,   0.99999262,  -0.00001169,  -0.00001569,  -0.00000053,  -0.00000006,   0.00000000,   0.00025258,  -0.00010669,  -0.00001839,   0.00000796,   0.00000174,  -0.00000026
  6.53516670,   0.99999272,  -0.00001159,  -0.00001958,  -0.00000053,  -0.00000011,   0.00000001,   0.00025260,  -0.00010671,  -0.00001839,   0.00000796,   0.00000174,  -0.00000026
  6.60175000,   0.99999292,  -0.00001166,  -0.00002299,  -0.00000053,  -0.00000016,   0.00000001,   0.00025262,  -0.00010672,  -0.00001839,   0.00000796,   0.00000174,  -0.00000026
  6.66833330,   0.99999336,  -0.00001135,  -0.00003865,  -0.00000053,  -0.00000038,   0.00000002,   0.00025264,  -0.00010673,  -0.00001839,   0.00000796,   0.00000174,  -0.00000026
  6.73491670,   0.99999407,  -0.00001129,  -0.00005676,  -0.00000053,  -0.00000064,   0.00000001,   0.00025265,  -0.00010674,  -0.00001840,   0.00000796,   0.00000174,  -0.00000026
  6.80150000,   0.99999275,  -0.00001159,  -0.00002005,  -0.00000053,  -0.00000012,   0.00000001,   0.00025267,  -0.00010676,  -0.00001840,   0.00000796,   0.00000174,  -0.00000026
  6.86808330,   0.99999257,  -0.00001168,  -0.00001333,  -0.00000053,  -0.00000002,  -0.00000001,   0.00025269,  -0.00010677,  -0.00001840,   0.00000796,   0.00000174,  -0.00000026
  6.93466670,   0.99999082,  -0.00001267,   0.00004371,  -0.00000053,   0.00000080,   0.00000000,   0.00025271,  -0.00010678,  -0.00001840,   0.00000796,   0.00000174,  -0.00000026
  7.00125000,   0.99999250,  -0.00001137,  -0.00001917,  -0.00000053,  -0.00000010,  -0.00000000,   0.00025272,  -0.00010679,  -0.00001841,   0.00000796,   0.00000174,  -0.00000026
  7.06783330,   0.99999249,  -0.00001131,  -0.00002090,  -0.00000053,  -0.00000013,   0.00000000,   0.00025274,  -0.00010680,  -0.00001841,   0.00000796,   0.00000174,  -0.00000026
  7.13441670,   0.99999275,  -0.00001125,  -0.00002702,  -0.00000053,  -0.00000022,   0.00000000,   0.00025276,  -0.00010682,  -0.00001841,   0.00000796,   0.00000174,  -0.00000026
  7.20100000,   0.99999348,  -0.00001115,  -0.00004528,  -0.00000053,  -0.00000048,   0.00000000,   0.00025278,  -0.00010683,  -0.00001842,   0.00000796,   0.00000174,  -0.00000026
  7.26758330,   0.99999368,  -0.00001147,  -0.00004451,  -0.00000053,  -0.00000047,   0.00000002,   0.00025279,  -0.00010684,  -0.00001842,   0.00000796,   0.00000174,  -0.00000026
  7.33416670,   0.99999251,  -0.00001169,  -0.00001273,  -0.00000053,  -0.00000001,   0.00000001,   0.00025281,  -0.00010685,  -0.00001842,   0.00000796,   0.00000174,  -0.00000026
  7.40075000,   0.99999225,  -0.00001173,  -0.00000508,  -0.00000052,   0.00000011,   0.00000001,   0.00025283,  -0.00010686,  -0.00001842,   0.00000796,   0.00000174,  -0.00000026
  7.46733330,   0.99999300,  -0.00001116,  -0.00003385,  -0.00000052,  -0.00000031,  -0.00000000,   0.00025284,  -0.00010687,  -0.00001843,   0.00000796,   0.00000174,  -0.00000026
  7.53391670,   0.99999368,  -0.00001092,  -0.00005573,  -0.00000053,  -0.00000064,   0.00000001,   0.00025286,  -0.00010688,  -0.00001843,   0.00000797,   0.00000174,  -0.00000026
  7.60050000,   0.99999268,  -0.00001142,  -0.00002198,  -0.00000052,  -0.00000015,   0.00000000,   0.00025288,  -0.00010690,  -0.00001843,   0.00000797,   0.00000175,  -0.00000026
  7.66708330,   0.99999278,  -0.00001132,  -0.00002553,  -0.00000052,  -0.00000020,   0.00000000,   0.00025289,  -0.00010691,  -0.00001843,   0.00000797,   0.00000175,  -0.00000026
  7.73366670,   0.99999261,  -0.00001137,  -0.00002123,  -0.00000052,  -0.00000014,   0.00000000,   0.00025291,  -0.00010692,  -0.00001844,   0.00000797,   0.00000175,  -0.00000026
  7.80025000,   0.99999372,  -0.00000996,  -0.00007237,  -0.00000052,  -0.00000087,   0.00000000,   0.00025293,  -0.00010693,  -0.00001844,   0.00000797,   0.00000175,  -0.00000026
  7.86683330,   0.99999245,  -0.00001082,  -0.00002869,  -0.00000053,  -0.00000026,  -0.00000000,   0.00025294,  -0.00010694,  -0.00001844,   0.00000797,   0.00000175,  -0.00000026
  7.93341670,   0.99999087,  -0.00001227,   0.00003552,  -0.00000053,   0.00000066,   0.00000002,   0.00025296,  -0.00010695,  -0.00001844,   0.00000797,   0.00000175,  -0.00000026
  8.00000000,   0.99999237,  -0.00001144,  -0.00001544,  -0.00000052,  -0.00000006,  -0.00000000,   0.00025298,  -0.00010696,  -0.00001845,   0.00000797,   0.00000175,  -0.00000026
  8.00025000,   0.97499335,  -0.00000364,  -0.00002977,  -0.00000044,  -0.00000041,  -0.00000002,   0.00024988,  -0.00010622,  -0.00001821,   0.00000788,   0.00000173,  -0.00000026
  8.00050000,   0.94999418,  -0.00000747,  -0.00001128,  -0.00000049,  -0.00000014,  -0.00000001,   0.00024634,  -0.00010523,  -0.00001793,   0.00000777,   0.00000171,  -0.00000025
  8.00075000,   0.92499584,  -0.00000714,  -0.00001205,  -0.00000042,  -0.00000015,  -0.00000001,   0.00024261,  -0.00010415,  -0.00001763,   0.00000766,   0.00000168,  -0.00000025
  8.00100000,   0.90000348,  -0.00001319,  -0.00001914,  -0.00000016,  -0.00000001,  -0.00000000,   0.00023874,  -0.00010298,  -0.00001732,   0.00000754,   0.00000166,  -0.00000025
  8.00125000,   0.87500449,  -0.00001312,  -0.00003452,  -0.00000038,  -0.00000017,  -0.00000001,   0.00023475,  -0.00010176,  -0.00001701,   0.00000742,   0.00000163,  -0.00000024
  8.00150000,   0.85000220,   0.00000783,   0.00003327,   0.00000020,   0.00000039,  -0.00000001,   0.00023067,  -0.00010048,  -0.00001669,   0.00000729,   0.00000160,  -0.00000024
  8.00175000,   0.82500294,  -0.00000941,  -0.00004193,  -0.00000025,  -0.00000032,   0.00000001,   0.00022651,  -0.00009916,  -0.00001636,   0.00000716,   0.00000157,  -0.00000023
  8.00200000,   0.79999860,  -0.00001135,  -0.00002440,  -0.00000040,  -0.00000011,   0.00000000,   0.00022227,  -0.00009780,  -0.00001602,   0.00000703,   0.00000154,  -0.00000023
  8.00225000,   0.77499998,  -0.00001090,  -0.00003805,  -0.00000044,  -0.00000027,   0.00000000,   0.00021798,  -0.00009641,  -0.00001569,   0.00000690,   0.00000152,  -0.00000022
  8.00250000,   0.74999833,   0.00000046,   0.00001321,  -0.00000010,   0.00000020,  -0.00000000,   0.00021363,  -0.00009499,  -0.00001534,   0.00000677,   0.00000149,  -0.00000022
  8.00275000,   0.72499940,  -0.00001003,  -0.00002899,  -0.00000031,  -0.00000019,   0.00000000,   0.00020923,  -0.00009355,  -0.00001500,   0.00000663,   0.00000146,  -0.00000021
  8.00300000,   0.69999754,  -0.00001139,  -0.00001925,  -0.00000046,  -0.00000007,  -0.00000000,   0.00020478,  -0.00009208,  -0.00001465,   0.00000650,   0.00000143,  -0.00000021
  8.00325000,   0.67499839,  -0.00001063,  -0.00002940,  -0.00000045,  -0.00000019,  -0.00000000,   0.00020029,  -0.00009059,  -0.00001429,   0.00000636,   0.00000140,  -0.00000020
  8.00350000,   0.64999835,  -0.00000292,   0.00000624,  -0.00000020,   0.00000014,  -0.00000000,   0.00019576,  -0.00008908,  -0.00001394,   0.00000622,   0.00000136,  -0.00000020
  8.00375000,   0.62499918,  -0.00001039,  -0.00002657,  -0.00000036,  -0.00000017,   0.00000001,   0.00019120,  -0.00008755,  -0.00001358,   0.00000608,   0.00000133,  -0.00000019
  8.00400000,   0.59999765,  -0.00001152,  -0.00001721,  -0.00000046,  -0.00000005,   0.00000000,   0.00018659,  -0.00008600,  -0.00001322,   0.00000594,   0.00000130,  -0.00000019
  8.00425000,   0.57499885,  -0.00001091,  -0.00002831,  -0.00000046,  -0.00000018,  -0.00000000,   0.00018195,  -0.00008443,  -0.00001285,   0.00000579,   0.00000127,  -0.00000018
  8.00450000,   0.54999886,  -0.00001169,  -0.00002217,  -0.00000046,  -0.00000011,  -0.00000000,   0.00017728,  -0.00008284,  -0.00001248,   0.00000565,   0.00000124,  -0.00000018
  8.00475000,   0.52499884,  -0.00000464,   0.00000153,  -0.00000025,   0.00000009,  -0.00000000,   0.00017257,  -0.00008124,  -0.00001211,   0.00000550,   0.00000121,  -0.00000017
  8.00500000,   0.49999934,  -0.00001054,  -0.00002423,  -0.00000042,  -0.00000015,   0.00000000,   0.00016784,  -0.00007962,  -0.00001174,   0.00000536,   0.00000117,  -0.00000017
  8.00525000,   0.47499834,  -0.00001139,  -0.00001862,  -0.00000046,  -0.00000008,  -0.00000000,   0.00016307,  -0.00007799,  -0.00001137,   0.00000521,   0.00000114,  -0.00000016
  8.00550000,   0.44999922,  -0.00001119,  -0.00002484,  -0.00000047,  -0.00000015,  -0.00000000,   0.00015828,  -0.00007634,  -0.00001099,   0.00000506,   0.00000111,  -0.00000016
  8.00575000,   0.42499929,  -0.00001149,  -0.00002195,  -0.00000047,  -0.00000011,  -0.00000000,   0.00015345,  -0.00007467,  -0.00001061,   0.00000491,   0.00000108,  -0.00000015
  8.00600000,   0.39999807,  -0.00001266,  -0.00001224,  -0.00000053,  -0.00000002,   0.00000000,   0.00014861,  -0.00007300,  -0.00001023,   0.00000476,   0.00000104,  -0.00000015
  8.00625000,   0.37499702,  -0.00001147,  -0.00001451,  -0.00000052,  -0.00000005,  -0.00000000,   0.00014373,  -0.00007131,  -0.00000985,   0.00000461,   0.00000101,  -0.00000014
  8.00650000,   0.34999732,  -0.00001121,  -0.00001680,  -0.00000052,  -0.00000008,  -0.00000000,   0.00013883,  -0.00006960,  -0.00000946,   0.00000446,   0.00000098,  -0.00000014
  8.00675000,   0.32499754,  -0.00001120,  -0.00001453,  -0.00000053,  -0.00000005,  -0.00000000,   0.00013390,  -0.00006788,  -0.00000908,   0.00000431,   0.00000094,  -0.00000013
  8.00700000,   0.29999749,  -0.00001133,  -0.00001426,  -0.00000053,  -0.00000005,  -0.00000000,   0.00012895,  -0.00006615,  -0.00000869,   0.00000415,   0.00000091,  -0.00000013
  8.00725000,   0.27499772,  -0.00001133,  -0.00001444,  -0.00000053,  -0.00000005,  -0.00000000,   0.00012398,  -0.00006441,  -0.00000830,   0.00000400,   0.00000088,  -0.00000012
  8.00750000,   0.24999804,  -0.00001128,  -0.00001531,  -0.00000053,  -0.00000006,  -0.00000000,   0.00011899,  -0.00006266,  -0.00000791,   0.00000384,   0.00000084,  -0.00000012
  8.00775000,   0.22499797,  -0.00001147,  -0.00001429,  -0.00000053,  -0.00000005,   0.00000000,   0.00011397,  -0.00006089,  -0.00000751,   0.00000369,   0.00000081,  -0.00000011
  8.00800000,   0.19999826,  -0.00001136,  -0.00001475,  -0.00000052,  -0.00000005,   0.00000000,   0.00010893,  -0.00005912,  -0.00000712,   0.00000353,   0.00000077,  -0.00000011
  8.00825000,   0.17499869,  -0.00001125,  -0.00001657,  -0.00000052,  -0.00000007,  -0.00000000,   0.00010387,  -0.00005733,  -0.00000672,   0.00000337,   0.00000074,  -0.00000010
  8.00850000,   0.14999882,  -0.00001131,  -0.00001635,  -0.00000052,  -0.00000007,  -0.00000000,   0.00009879,  -0.00005553,  -0.00000633,   0.00000322,   0.00000070,  -0.00000010
  8.00875000,   0.12499906,  -0.00001131,  -0.00001632,  -0.00000052,  -0.00000007,  -0.00000000,   0.00009369,  -0.00005372,  -0.00000593,   0.00000306,   0.00000067,  -0.00000009
  8.00900000,   0.09999915,  -0.00001143,  -0.00001493,  -0.00000052,  -0.00000005,   0.00000000,   0.00008858,  -0.00005191,  -0.00000553,   0.00000290,   0.00000063,  -0.00000008
  8.00925000,   0.07499936,  -0.00001147,  -0.00001478,  -0.00000052,  -0.00000005,   0.00000000,   0.00008344,  -0.00005008,  -0.00000512,   0.00000274,   0.00000060,  -0.00000008
  8.00950000,   0.04999959,  -0.00001145,  -0.00001516,  -0.00000052,  -0.00000006,  -0.00000000,   0.00007829,  -0.00004824,  -0.00000472,   0.00000258,   0.00000056,  -0.00000007
  8.00975000,   0.02499981,  -0.00001144,  -0.00001546,  -0.00000052,  -0.00000006,  -0.00000000,   0.00007312,  -0.00004639,  -0.00000432,   0.00000242,   0.00000053,  -0.00000007
  8.01000000,   0.00000005,  -0.00001149,  -0.00001540,  -0.00000053,  -0.00000006,  -0.00000000,   0.00006793,  -0.00004454,  -0.00000391,   0.00000225,   0.00000049,  -0.00000006
  8.14316670,   0.00000004,  -0.00001149,  -0.00001531,  -0.00000053,  -0.00000006,  -0.00000000,   0.00000978,  -0.00000845,  -0.00000041,   0.00000028,   0.00000009,  -0.00000001
  8.27633330,   0.00000005,  -0.00001149,  -0.00001540,  -0.00000053,  -0.00000006,  -0.00000000,   0.00000507,  -0.00000432,  -0.00000031,   0.00000014,   0.00000006,  -0.00000000
  8.40950000,   0.00000005,  -0.00001149,  -0.00001539,  -0.00000053,  -0.00000006,  -0.00000000,   0.00000362,  -0.00000296,  -0.00000030,   0.00000011,   0.00000005,  -0.00000000
  8.54266670,   0.00000005,  -0.00001149,  -0.00001541,  -0.00000053,  -0.00000006,  -0.00000000,   0.00000313,  -0.00000247,  -0.00000030,   0.00000009,   0.00000005,  -0.00000000
  8.67583330,   0.00000005,  -0.00001149,  -0.00001540,  -0.00000053,  -0.00000006,  -0.00000000,   0.00000293,  -0.00000227,  -0.00000030,   0.00000009,   0.00000005,  -0.00000000
  8.80900000,   0.00000005,  -0.00001149,  -0.00001540,  -0.00000053,  -0.00000006,  -0.00000000,   0.00000283,  -0.00000216,  -0.00000030,   0.00000008,   0.00000005,  -0.00000000
  8.94216670,   0.00000005,  -0.00001149,  -0.00001539,  -0.00000053,  -0.00000006,  -0.00000000,   0.00000277,  -0.00000209,  -0.00000030,   0.00000008,   0.00000005,  -0.00000000
  9.07533330,   0.00000005,  -0.00001149,  -0.00001540,  -0.00000053,  -0.00000006,  -0.00000000,   0.00000272,  -0.00000204,  -0.00000031,   0.00000008,   0.00000005,  -0.00000000
  9.20850000,   0.00000005,  -0.00001149,  -0.00001539,  -0.00000053,  -0.00000006,  -0.00000000,   0.00000267,  -0.00000199,  -0.00000031,   0.00000008,   0.00000005,  -0.00000000
  9.34166670,   0.00000005,  -0.00001149,  -0.00001540,  -0.00000053,  -0.00000006,  -0.00000000,   0.00000263,  -0.00000194,  -0.00000031,   0.00000008,   0.00000005,  -0.00000000
  9.47483330,   0.00000005,  -0.00001149,  -0.00001539,  -0.00000053,  -0.00000006,  -0.00000000,   0.00000259,  -0.00000190,  -0.00000031,   0.00000008,   0.00000005,  -0.00000000
  9.60800000,   0.00000005,  -0.00001149,  -0.00001540,  -0.00000053,  -0.00000006,  -0.00000000,   0.00000255,  -0.00000186,  -0.00000031,   0.00000008,   0.00000005,  -0.00000000
  9.74116670,   0.00000005,  -0.00001149,  -0.00001540,  -0.00000053,  -0.00000006,  -0.00000000,   0.00000251,  -0.00000182,  -0.00000031,   0.00000008,   0.00000005,  -0.00000000
  9.87433330,   0.00000005,  -0.00001149,  -0.00001541,  -0.00000053,  -0.00000006,  -0.00000000,   0.00000247,  -0.00000179,  -0.00000031,   0.00000008,   0.00000005,  -0.00000000
 10.00750000,   0.00000004,  -0.00001149,  -0.00001541,  -0.00000053,  -0.00000006,  -0.00000000,   0.00000244,  -0.00000175,  -0.00000031,   0.00000007,   0.00000005,  -0.00000000
 10.14066700,   0.00000004,  -0.00001149,  -0.00001538,  -0.00000053,  -0.00000006,  -0.00000000,   0.00000241,  -0.00000172,  -0.00000031,   0.00000007,   0.00000005,  -0.00000000
 10.27383300,   0.00000004,  -0.00001149,  -0.00001541,  -0.00000053,  -0.00000006,  -0.00000000,   0.00000237,  -0.00000168,  -0.00000031,   0.00000007,   0.00000005,  -0.00000000
 10.40700000,   0.00000004,  -0.00001149,  -0.00001544,  -0.00000053,  -0.00000006,   0.00000000,   0.00000234,  -0.00000165,  -0.00000031,   0.00000007,   0.00000005,  -0.00000000
 10.54016700,   0.00000004,  -0.00001149,  -0.00001540,  -0.00000053,  -0.00000006,   0.00000000,   0.00000231,  -0.00000162,  -0.00000031,   0.00000007,   0.00000005,  -0.00000000
 10.67333300,   0.00000004,  -0.00001149,  -0.00001538,  -0.00000053,  -0.00000006,  -0.00000000,   0.00000228,  -0.00000159,  -0.00000031,   0.00000007,   0.00000005,  -0.00000000
 10.80650000,   0.00000004,  -0.00001149,  -0.00001538,  -0.00000053,  -0.00000006,  -0.00000000,   0.00000225,  -0.00000156,  -0.00000031,   0.00000007,   0.00000005,  -0.00000000
 10.93966700,   0.00000004,  -0.00001149,  -0.00001535,  -0.00000053,  -0.00000006,   0.00000000,   0.00000222,  -0.00000154,  -0.00000031,   0.00000007,   0.00000005,  -0.00000000
 11.07283300,   0.00000004,  -0.00001149,  -0.00001538,  -0.00000053,  -0.00000006,  -0.00000000,   0.00000219,  -0.00000151,  -0.00000031,   0.00000007,   0.00000005,  -0.00000000
 11.20600000,   0.00000004,  -0.00001149,  -0.00001537,  -0.00000053,  -0.00000006,  -0.00000000,   0.00000216,  -0.00000148,  -0.00000031,   0.00000007,   0.00000005,  -0.00000000
 11.33916700,   0.00000004,  -0.00001149,  -0.00001535,  -0.00000053,  -0.00000006,   0.00000000,   0.00000214,  -0.00000146,  -0.00000031,   0.00000007,   0.00000005,  -0.00000000
 11.47233300,   0.00000004,  -0.00001149,  -0.00001535,  -0.00000053,  -0.00000006,   0.00000000,   0.00000211,  -0.00000143,  -0.00000031,   0.00000007,   0.00000005,  -0.00000000
 11.60550000,   0.00000004,  -0.00001149,  -0.00001541,  -0.00000053,  -0.00000006,  -0.00000000,   0.00000209,  -0.00000141,  -0.00000031,   0.00000007,   0.00000005,  -0.00000000
 11.73866700,   0.00000004,  -0.00001149,  -0.00001541,  -0.00000053,  -0.00000006,  -0.00000000,   0.00000206,  -0.00000138,  -0.00000031,   0.00000007,   0.00000005,  -0.00000000
 11.87183300,   0.00000005,  -0.00001149,  -0.00001540,  -0.00000053,  -0.00000006,  -0.00000000,   0.00000204,  -0.00000136,  -0.00000031,   0.00000006,   0.00000005,  -0.00000000
 12.00500000,   0.00000005,  -0.00001149,  -0.00001539,  -0.00000053,  -0.00000006,  -0.00000000,   0.00000201,  -0.00000134,  -0.00000031,   0.00000006,   0.00000005,  -0.00000000
 12.13816700,   0.00000005,  -0.00001149,  -0.00001540,  -0.00000053,  -0.00000006,  -0.00000000,   0.00000199,  -0.00000132,  -0.00000031,   0.00000006,   0.00000005,  -0.00000000
 12.27133300,   0.00000005,  -0.00001149,  -0.00001540,  -0.00000053,  -0.00000006,  -0.00000000,   0.00000197,  -0.00000129,  -0.00000031,   0.00000006,   0.00000005,  -0.00000000
 12.40450000,   0.00000004,  -0.00001149,  -0.00001539,  -0.00000053,  -0.00000006,  -0.00000000,   0.00000194,  -0.00000127,  -0.00000031,   0.00000006,   0.00000005,  -0.00000000
 12.53766700,   0.00000004,  -0.00001149,  -0.00001539,  -0.00000053,  -0.00000006,  -0.00000000,   0.00000192,  -0.00000125,  -0.00000031,   0.00000006,   0.00000005,  -0.00000000
 12.67083300,   0.00000004,  -0.00001149,  -0.00001543,  -0.00000053,  -0.00000006,   0.00000000,   0.00000190,  -0.00000123,  -0.00000031,   0.00000006,   0.00000005,  -0.00000000
 12.80400000,   0.00000004,  -0.00001149,  -0.00001539,  -0.00000053,  -0.00000006,  -0.00000000,   0.00000188,  -0.00000121,  -0.00000031,   0.00000006,   0.00000005,  -0.00000000
 12.93716700,   0.00000004,  -0.00001149,  -0.00001538,  -0.00000053,  -0.00000006,  -0.00000000,   0.00000186,  -0.00000119,  -0.00000031,   0.00000006,   0.00000005,  -0.00000000
 13.07033300,   0.00000004,  -0.00001149,  -0.00001537,  -0.00000053,  -0.00000006,  -0.00000000,   0.00000184,  -0.00000118,  -0.00000031,   0.00000006,   0.00000005,  -0.00000000
 13.20350000,   0.00000004,  -0.00001149,  -0.00001541,  -0.00000053,  -0.00000006,  -0.00000000,   0.00000182,  -0.00000116,  -0.00000031,   0.00000006,   0.00000005,  -0.00000000
 13.33666700,   0.00000004,  -0.00001149,  -0.00001539,  -0.00000053,  -0.00000006,  -0.00000000,   0.00000180,  -0.00000114,  -0.00000031,   0.00000006,   0.00000005,  -0.00000000
 13.46983300,   0.00000004,  -0.00001149,  -0.00001544,  -0.00000053,  -0.00000006,   0.00000000,   0.00000178,  -0.00000112,  -0.00000031,   0.00000006,   0.00000005,  -0.00000000
 13.60300000,   0.00000004,  -0.00001149,  -0.00001542,  -0.00000053,  -0.00000006,  -0.00000000,   0.00000176,  -0.00000111,  -0.00000031,   0.00000006,   0.00000005,  -0.00000000
 13.73616700,   0.00000004,  -0.00001149,  -0.00001541,  -0.00000053,  -0.00000006,  -0.00000000,   0.00000175,  -0.00000109,  -0.00000031,   0.00000006,   0.00000005,  -0.00000000
 13.86933300,   0.00000004,  -0.00001149,  -0.00001546,  -0.00000053,  -0.00000006,   0.00000000,   0.00000173,  -0.00000107,  -0.00000031,   0.00000006,   0.00000005,  -0.00000000
 14.00250000,   0.00000004,  -0.00001150,  -0.00001542,  -0.00000053,  -0.00000006,  -0.00000000,   0.00000171,  -0.00000106,  -0.00000031,   0.00000006,   0.00000005,  -0.00000000
 14.13566700,   0.00000004,  -0.00001150,  -0.00001542,  -0.00000053,  -0.00000006,  -0.00000000,   0.00000169,  -0.00000104,  -0.00000031,   0.00000006,   0.00000005,  -0.00000000
 14.26883300,   0.00000004,  -0.00001150,  -0.00001546,  -0.00000053,  -0.00000006,   0.00000000,   0.00000168,  -0.00000103,  -0.00000031,   0.00000006,   0.00000005,  -0.00000000
 14.40200000,   0.00000004,  -0.00001150,  -0.00001542,  -0.00000053,  -0.00000006,  -0.00000000,   0.00000166,  -0.00000101,  -0.00000031,   0.00000005,   0.00000005,  -0.00000000
 14.53516700,   0.00000004,  -0.00001150,  -0.00001543,  -0.00000053,  -0.00000006,  -0.00000000,   0.00000165,  -0.00000100,  -0.00000031,   0.00000005,   0.00000005,  -0.00000000
 14.66833300,   0.00000003,  -0.00001149,  -0.00001542,  -0.00000053,  -0.00000006,  -0.00000000,   0.00000163,  -0.00000098,  -0.00000031,   0.00000005,   0.00000005,  -0.00000000
 14.80150000,   0.00000004,  -0.00001149,  -0.00001542,  -0.00000053,  -0.00000006,  -0.00000000,   0.00000162,  -0.00000097,  -0.00000031,   0.00000005,   0.00000005,  -0.00000000
 14.93466700,   0.00000004,  -0.00001149,  -0.00001539,  -0.00000053,  -0.00000006,   0.00000000,   0.00000160,  -0.00000096,  -0.00000030,   0.00000005,   0.00000005,  -0.00000000
 15.06783300,   0.00000004,  -0.00001149,  -0.00001541,  -0.00000053,  -0.00000006,   0.00000000,   0.00000159,  -0.00000094,  -0.00000030,   0.00000005,   0.00000005,  -0.00000000
 15.20100000,   0.00000004,  -0.00001149,  -0.00001541,  -0.00000053,  -0.00000006,  -0.00000000,   0.00000157,  -0.00000093,  -0.00000030,   0.00000005,   0.00000005,  -0.00000000
 15.33416700,   0.00000004,  -0.00001149,  -0.00001544,  -0.00000053,  -0.00000006,   0.00000000,   0.00000156,  -0.00000092,  -0.00000030,   0.00000005,   0.00000005,  -0.00000000
 15.46733300,   0.00000004,  -0.00001149,  -0.00001541,  -0.00000053,  -0.00000006,  -0.00000000,   0.00000155,  -0.00000091,  -0.00000030,   0.00000005,   0.00000005,  -0.00000000
 15.60050000,   0.00000004,  -0.00001149,  -0.00001544,  -0.00000053,  -0.00000006,   0.00000000,   0.00000153,  -0.00000090,  -0.00000030,   0.00000005,   0.00000005,  -0.00000000
 15.73366700,   0.00000004,  -0.00001149,  -0.00001539,  -0.00000053,  -0.00000006,  -0.00000000,   0.00000152,  -0.00000088,  -0.00000030,   0.00000005,   0.00000005,  -0.00000000
 15.86683300,   0.00000005,  -0.00001149,  -0.00001539,  -0.00000053,  -0.00000006,  -0.00000000,   0.00000151,  -0.00000087,  -0.00000030,   0.00000005,   0.00000005,  -0.00000000
 16.00000000,   0.00000005,  -0.00001149,  -0.00001540,  -0.00000053,  -0.00000006,  -0.00000000,   0.00000149,  -0.00000086,  -0.00000030,   0.00000005,   0.00000005,  -0.00000000
