Time (m)    , Stress_xx (MPa), Stress_yy (MPa), Stress_zz (MPa), Stress_xy (MPa), Stress_xz (MPa), Stress_yz (MPa), Strain_xx   , Strain_yy   , Strain_zz   , Strain_xy   , Strain_xz   , Strain_yz   
  0.00000000,   0.00000000,   0.00000000,   0.00000000,   0.00000000,   0.00000000,   0.00000000,   0.00000000,   0.00000000,   0.00000000,   0.00000000,   0.00000000,   0.00000000
  0.00050000,   0.04999989,  -0.00000005,   0.00000075,  -0.00000000,   0.00000001,  -0.00000000,   0.00001125,  -0.00000441,  -0.00000086,   0.00000026,   0.00000008,   0.00000000
  0.00100000,   0.09999966,  -0.00000018,   0.00000175,  -0.00000001,   0.00000003,  -0.00000000,   0.00002329,  -0.00000940,  -0.00000176,   0.00000055,   0.00000016,   0.00000000
  0.00150000,   0.14999916,  -0.00000040,  -0.00000129,  -0.00000003,  -0.00000002,   0.00000000,   0.00003547,  -0.00001452,  -0.00000265,   0.00000083,   0.00000024,   0.00000000
  0.00200000,   0.19999837,  -0.00000103,  -0.00000396,  -0.00000006,  -0.00000006,   0.00000000,   0.00004773,  -0.00001970,  -0.00000355,   0.00000112,   0.00000033,   0.00000001
  0.00250000,   0.24999764,  -0.00000163,  -0.00000446,  -0.00000008,  -0.00000001,  -0.00000000,   0.00006001,  -0.00002491,  -0.00000445,   0.00000141,   0.00000041,   0.00000001
  0.00300000,   0.29999661,  -0.00000208,  -0.00000637,  -0.00000010,  -0.00000005,   0.00000000,   0.00007231,  -0.00003014,  -0.00000536,   0.00000170,   0.00000049,   0.00000001
  0.00350000,   0.34999602,  -0.00000245,   0.00000513,  -0.00000011,   0.00000012,  -0.00000000,   0.00008462,  -0.00003538,  -0.00000625,   0.00000198,   0.00000058,   0.00000001
  0.00400000,   0.39999680,  -0.00000169,  -0.00000148,  -0.00000010,   0.00000001,   0.00000000,   0.00009694,  -0.00004063,  -0.00000716,   0.00000227,   0.00000066,   0.00000001
  0.00450000,   0.45000385,  -0.00001035,   0.00002234,  -0.00000007,   0.00000039,  -0.00000002,   0.00010926,  -0.00004588,  -0.00000805,   0.00000256,   0.00000075,   0.00000001
  0.00500000,   0.49999893,  -0.00000170,  -0.00000368,  -0.00000006,  -0.00000003,  -0.00000000,   0.00012158,  -0.00005112,  -0.00000896,   0.00000285,   0.00000083,   0.00000002
  0.00550000,   0.54999770,   0.00000071,   0.00000244,  -0.00000004,   0.00000003,  -0.00000000,   0.00013391,  -0.00005638,  -0.00000986,   0.00000314,   0.00000091,   0.00000002
  0.00600000,   0.60000821,  -0.00000621,  -0.00005208,  -0.00000000,  -0.00000068,   0.00000000,   0.00014624,  -0.00006163,  -0.00001076,   0.00000343,   0.00000100,   0.00000002
  0.00650000,   0.65000056,  -0.00000104,   0.00000183,  -0.00000000,   0.00000005,  -0.00000000,   0.00015857,  -0.00006689,  -0.00001166,   0.00000372,   0.00000108,   0.00000002
  0.00700000,   0.69999888,   0.00000132,  -0.00000143,  -0.00000000,  -0.00000004,   0.00000000,   0.00017090,  -0.00007215,  -0.00001256,   0.00000401,   0.00000117,   0.00000002
  0.00750000,   0.75000529,  -0.00000707,   0.00000985,   0.00000002,   0.00000024,  -0.00000001,   0.00018324,  -0.00007741,  -0.00001346,   0.00000430,   0.00000125,   0.00000002
  0.00800000,   0.80000064,  -0.00000102,  -0.00000505,   0.00000000,  -0.00000005,  -0.00000000,   0.00019557,  -0.00008267,  -0.00001436,   0.00000458,   0.00000133,   0.00000002
  0.00850000,   0.84999842,   0.00000058,   0.00000417,  -0.00000001,   0.00000005,  -0.00000000,   0.00020791,  -0.00008793,  -0.00001526,   0.00000487,   0.00000142,   0.00000003
  0.00900000,   0.90000794,  -0.00000446,  -0.00008246,  -0.00000001,  -0.00000110,   0.00000001,   0.00022025,  -0.00009320,  -0.00001617,   0.00000516,   0.00000150,   0.00000003
  0.00950000,   0.95000107,  -0.00000197,  -0.00001574,  -0.00000003,  -0.00000017,   0.00000001,   0.00023259,  -0.00009847,  -0.00001707,   0.00000545,   0.00000159,   0.00000003
  0.01000000,   0.99999603,  -0.00000002,   0.00003512,  -0.00000003,   0.00000049,   0.00000001,   0.00024493,  -0.00010374,  -0.00001797,   0.00000574,   0.00000167,   0.00000003
  0.07658333,   1.00000940,   0.00000887,   0.00000072,   0.00000040,  -0.00000016,  -0.00000001,   0.00024940,  -0.00010718,  -0.00001838,   0.00000585,   0.00000174,   0.00000003
  0.14316667,   0.99999671,  -0.00000016,   0.00005517,   0.00000004,   0.00000084,  -0.00000001,   0.00025093,  -0.00010806,  -0.00001870,   0.00000588,   0.00000179,   0.00000003
  0.20975000,   0.99999974,   0.00000563,   0.00007533,   0.00000018,   0.00000077,   0.00000002,   0.00025210,  -0.00010865,  -0.00001899,   0.00000592,   0.00000183,   0.00000003
  0.27633333,   1.00000400,   0.00000826,   0.00005067,   0.00000027,   0.00000009,   0.00000001,   0.00025307,  -0.00010912,  -0.00001923,   0.00000594,   0.00000187,   0.00000003
  0.34291667,   1.00000320,   0.00000574,   0.00006603,   0.00000024,   0.00000092,   0.00000004,   0.00025391,  -0.00010953,  -0.00001944,   0.00000597,   0.00000190,   0.00000003
  0.40950000,   1.00000770,   0.00000849,   0.00004049,   0.00000029,   0.00000061,   0.00000002,   0.00025465,  -0.00010990,  -0.00001962,   0.00000599,   0.00000193,   0.00000003
  0.47608333,   1.00000770,   0.00000905,   0.00004814,   0.00000029,   0.00000051,   0.00000001,   0.00025531,  -0.00011025,  -0.00001977,   0.00000601,   0.00000195,   0.00000003
  0.54266667,   1.00000750,   0.00000876,   0.00004272,   0.00000028,   0.00000071,   0.00000003,   0.00025590,  -0.00011057,  -0.00001989,   0.00000602,   0.00000197,   0.00000003
  0.60925000,   1.00000530,   0.00000712,   0.00004364,   0.00000021,   0.00000056,   0.00000001,   0.00025644,  -0.00011088,  -0.00002000,   0.00000604,   0.00000199,   0.00000003
  0.67583333,   1.00001960,   0.00000187,   0.00002607,   0.00000028,   0.00000188,   0.00000003,   0.00025693,  -0.00011117,  -0.00002010,   0.00000605,   0.00000201,   0.00000003
  0.74241667,   1.00000680,   0.00000820,   0.00004155,   0.00000024,   0.00000073,   0.00000005,   0.00025738,  -0.00011145,  -0.00002017,   0.00000606,   0.00000202,   0.00000003
  0.80900000,   1.00001000,   0.00000651,   0.00004332,   0.00000024,   0.00000078,   0.00000001,   0.00025780,  -0.00011171,  -0.00002024,   0.00000607,   0.00000203,   0.00000003
  0.87558333,   1.00001740,   0.00000488,   0.00002453,   0.00000030,   0.00000133,  -0.00000000,   0.00025819,  -0.00011197,  -0.00002030,   0.00000608,   0.00000204,   0.00000003
  0.94216667,   1.00001450,   0.00000943,   0.00004182,   0.00000032,   0.00000084,   0.00000002,   0.00025855,  -0.00011221,  -0.00002034,   0.00000609,   0.00000205,   0.00000003
  1.00875000,   1.00001320,   0.00001037,   0.00003964,   0.00000033,   0.00000056,   0.00000001,   0.00025889,  -0.00011245,  -0.00002039,   0.00000610,   0.00000206,   0.00000003
  1.07533330,   1.00000440,   0.00000635,   0.00004297,   0.00000021,   0.00000059,   0.00000001,   0.00025920,  -0.00011268,  -0.00002042,   0.00000611,   0.00000207,   0.00000003
  1.14191670,   1.00000190,   0.00000144,   0.00003956,   0.00000011,   0.00000073,   0.00000001,   0.00025950,  -0.00011290,  -0.00002045,   0.00000612,   0.00000207,   0.00000003
  1.20850000,   1.00000000,   0.00000012,   0.00003628,   0.00000004,   0.00000066,   0.00000001,   0.00025978,  -0.00011312,  -0.00002048,   0.00000612,   0.00000208,   0.00000003
  1.27508330,   1.00000170,  -0.00000133,   0.00002972,   0.00000003,   0.00000085,   0.00000001,   0.00026006,  -0.00011333,  -0.00002050,   0.00000613,   0.00000209,   0.00000003
  1.34166670,   1.00000040,   0.00000090,   0.00003824,   0.00000003,   0.00000066,   0.00000001,   0.00026032,  -0.00011353,  -0.00002052,   0.00000613,   0.00000209,   0.00000003
  1.40825000,   1.00000090,   0.00000212,   0.00003645,   0.00000005,   0.00000054,   0.00000001,   0.00026057,  -0.00011373,  -0.00002053,   0.00000614,   0.00000209,   0.00000003
  1.47483330,   1.00000140,   0.00000266,   0.00003762,   0.00000007,   0.00000054,   0.00000001,   0.00026081,  -0.00011393,  -0.00002055,   0.00000615,   0.00000210,   0.00000003
  1.54141670,   1.00000110,   0.00000320,   0.00003654,   0.00000008,   0.00000047,   0.00000001,   0.00026105,  -0.00011412,  -0.00002056,   0.00000615,   0.00000210,   0.00000003
  1.60800000,   1.00000100,   0.00000275,   0.00003733,   0.00000008,   0.00000052,   0.00000001,   0.00026128,  -0.00011430,  -0.00002057,   0.00000616,   0.00000210,   0.00000003
  1.67458330,   1.00000020,   0.00000254,   0.00003631,   0.00000008,   0.00000048,   0.00000001,   0.00026150,  -0.00011449,  -0.00002058,   0.00000616,   0.00000211,   0.00000003
  1.74116670,   0.99999967,   0.00000188,   0.00003674,   0.00000006,   0.00000051,   0.00000001,   0.00026171,  -0.00011467,  -0.00002058,   0.00000617,   0.00000211,   0.00000003
  1.80775000,   0.99999128,   0.00000593,   0.00013116,   0.00000004,   0.00000151,   0.00000001,   0.00026192,  -0.00011484,  -0.00002059,   0.00000617,   0.00000211,   0.00000003
  1.87433330,   0.99999906,   0.00000226,   0.00004090,   0.00000006,   0.00000044,   0.00000001,   0.00026212,  -0.00011502,  -0.00002060,   0.00000618,   0.00000211,   0.00000003
  1.94091670,   0.99999977,   0.00000101,   0.00003739,   0.00000005,   0.00000055,   0.00000001,   0.00026232,  -0.00011519,  -0.00002060,   0.00000618,   0.00000212,   0.00000003
  2.00750000,   0.99999908,   0.00000094,   0.00003751,   0.00000003,   0.00000056,   0.00000001,   0.00026251,  -0.00011535,  -0.00002061,   0.00000619,   0.00000212,   0.00000003
  2.07408330,   0.99999303,   0.00000523,   0.00007907,   0.00000001,   0.00000087,   0.00000001,   0.00026270,  -0.00011551,  -0.00002061,   0.00000619,   0.00000212,   0.00000003
  2.14066670,   0.99999832,   0.00000160,   0.00003410,   0.00000002,   0.00000041,   0.00000001,   0.00026289,  -0.00011568,  -0.00002061,   0.00000619,   0.00000212,   0.00000003
  2.20725000,   0.99999974,  -0.00000014,   0.00003007,   0.00000002,   0.00000050,   0.00000001,   0.00026307,  -0.00011583,  -0.00002062,   0.00000620,   0.00000212,   0.00000003
  2.27383330,   0.99999824,   0.00000045,   0.00003805,   0.00000001,   0.00000056,   0.00000001,   0.00026325,  -0.00011599,  -0.00002062,   0.00000620,   0.00000213,   0.00000003
  2.34041670,   0.99999523,   0.00000504,   0.00001396,  -0.00000000,   0.00000005,   0.00000002,   0.00026343,  -0.00011614,  -0.00002062,   0.00000621,   0.00000213,   0.00000003
  2.40700000,   0.99999762,   0.00000105,   0.00003626,   0.00000000,   0.00000048,   0.00000001,   0.00026360,  -0.00011629,  -0.00002063,   0.00000621,   0.00000213,   0.00000003
  2.47358330,   0.99999805,   0.00000038,   0.00003339,   0.00000000,   0.00000048,   0.00000001,   0.00026377,  -0.00011644,  -0.00002063,   0.00000621,   0.00000213,   0.00000003
  2.54016670,   0.99999254,   0.00000394,   0.00007688,  -0.00000001,   0.00000097,   0.00000001,   0.00026393,  -0.00011658,  -0.00002063,   0.00000622,   0.00000213,   0.00000003
  2.60675000,   0.99999700,   0.00000091,   0.00004793,  -0.00000000,   0.00000062,   0.00000001,   0.00026410,  -0.00011673,  -0.00002063,   0.00000622,   0.00000213,   0.00000003
  2.67333330,   0.99999793,   0.00000024,   0.00003848,   0.00000000,   0.00000054,   0.00000001,   0.00026426,  -0.00011687,  -0.00002064,   0.00000623,   0.00000213,   0.00000003
  2.73991670,   0.99999745,   0.00000033,   0.00004008,  -0.00000000,   0.00000057,   0.00000001,   0.00026442,  -0.00011701,  -0.00002064,   0.00000623,   0.00000214,   0.00000003
  2.80650000,   0.99999515,   0.00000424,   0.00001435,  -0.00000001,   0.00000011,   0.00000001,   0.00026458,  -0.00011714,  -0.00002064,   0.00000623,   0.00000214,   0.00000003
  2.87308330,   0.99999780,   0.00000125,   0.00001967,  -0.00000000,   0.00000022,   0.00000002,   0.00026473,  -0.00011728,  -0.00002064,   0.00000624,   0.00000214,   0.00000003
  2.93966670,   0.99999753,   0.00000018,   0.00004059,  -0.00000000,   0.00000057,   0.00000001,   0.00026488,  -0.00011741,  -0.00002064,   0.00000624,   0.00000214,   0.00000003
  3.00625000,   0.99999748,   0.00000034,   0.00003393,  -0.00000000,   0.00000048,   0.00000001,   0.00026503,  -0.00011754,  -0.00002065,   0.00000624,   0.00000214,   0.00000003
  3.07283330,   0.99999297,   0.00000258,   0.00008094,  -0.00000001,   0.00000111,   0.00000001,   0.00026517,  -0.00011766,  -0.00002064,   0.00000625,   0.00000214,   0.00000003
  3.13941670,   0.99999684,   0.00000055,   0.00004536,  -0.00000001,   0.00000062,   0.00000001,   0.00026532,  -0.00011779,  -0.00002065,   0.00000625,   0.00000214,   0.00000003
  3.20600000,   0.99999757,   0.00000013,   0.00003684,  -0.00000000,   0.00000052,   0.00000001,   0.00026546,  -0.00011791,  -0.00002065,   0.00000625,   0.00000214,   0.00000003
  3.27258330,   0.99999314,   0.00000297,   0.00007153,  -0.00000002,   0.00000098,   0.00000000,   0.00026560,  -0.00011804,  -0.00002065,   0.00000626,   0.00000215,   0.00000003
  3.33916670,   0.99999715,   0.00000087,   0.00003421,  -0.00000001,   0.00000046,   0.00000001,   0.00026574,  -0.00011816,  -0.00002065,   0.00000626,   0.00000215,   0.00000003
  3.40575000,   0.99999752,   0.00000010,   0.00003685,  -0.00000001,   0.00000052,   0.00000001,   0.00026587,  -0.00011827,  -0.00002066,   0.00000626,   0.00000215,   0.00000003
  3.47233330,   0.99999490,   0.00000394,   0.00001830,  -0.00000001,   0.00000018,   0.00000002,   0.00026601,  -0.00011839,  -0.00002066,   0.00000626,   0.00000215,   0.00000003
  3.53891670,   0.99999692,   0.00000073,   0.00003682,  -0.00000001,   0.00000050,   0.00000001,   0.00026614,  -0.00011850,  -0.00002066,   0.00000627,   0.00000215,   0.00000003
  3.60550000,   0.99999702,   0.00000611,  -0.00005898,  -0.00000001,  -0.00000096,   0.00000002,   0.00026627,  -0.00011861,  -0.00002067,   0.00000627,   0.00000215,   0.00000003
  3.67208330,   0.99999840,   0.00000199,  -0.00000938,  -0.00000001,  -0.00000020,   0.00000002,   0.00026640,  -0.00011873,  -0.00002067,   0.00000627,   0.00000215,   0.00000003
  3.73866670,   0.99999646,  -0.00000117,   0.00008057,  -0.00000000,   0.00000118,   0.00000001,   0.00026652,  -0.00011884,  -0.00002066,   0.00000628,   0.00000215,   0.00000003
  3.80525000,   0.99999747,  -0.00000051,   0.00004635,  -0.00000000,   0.00000067,   0.00000000,   0.00026665,  -0.00011895,  -0.00002067,   0.00000628,   0.00000216,   0.00000003
  3.87183330,   0.99999717,   0.00000011,   0.00003681,  -0.00000001,   0.00000052,   0.00000001,   0.00026677,  -0.00011905,  -0.00002067,   0.00000628,   0.00000216,   0.00000003
  3.93841670,   0.99999691,   0.00000010,   0.00003784,  -0.00000001,   0.00000053,   0.00000001,   0.00026689,  -0.00011916,  -0.00002067,   0.00000628,   0.00000216,   0.00000003
  4.00500000,   0.99999527,   0.00000291,   0.00001924,  -0.00000002,   0.00000023,   0.00000001,   0.00026701,  -0.00011926,  -0.00002067,   0.00000629,   0.00000216,   0.00000003
  4.07158330,   0.99999704,   0.00000066,   0.00002773,  -0.00000001,   0.00000037,   0.00000001,   0.00026713,  -0.00011936,  -0.00002068,   0.00000629,   0.00000216,   0.00000003
  4.13816670,   0.99999767,  -0.00000012,   0.00002991,  -0.00000001,   0.00000042,   0.00000001,   0.00026724,  -0.00011946,  -0.00002068,   0.00000629,   0.00000216,   0.00000003
  4.20475000,   0.99999387,   0.00000277,   0.00005380,  -0.00000002,   0.00000072,   0.00000001,   0.00026735,  -0.00011956,  -0.00002068,   0.00000630,   0.00000216,   0.00000003
  4.27133330,   0.99999687,   0.00000076,   0.00003352,  -0.00000001,   0.00000045,   0.00000001,   0.00026747,  -0.00011965,  -0.00002068,   0.00000630,   0.00000216,   0.00000003
  4.33791670,   0.99999722,   0.00000006,   0.00003682,  -0.00000001,   0.00000052,   0.00000001,   0.00026758,  -0.00011975,  -0.00002068,   0.00000630,   0.00000216,   0.00000003
  4.40450000,   0.99999537,   0.00000334,   0.00001280,  -0.00000001,   0.00000012,   0.00000001,   0.00026769,  -0.00011984,  -0.00002069,   0.00000630,   0.00000216,   0.00000003
  4.47108330,   0.99999701,   0.00000086,   0.00002728,  -0.00000001,   0.00000035,   0.00000001,   0.00026779,  -0.00011993,  -0.00002069,   0.00000631,   0.00000217,   0.00000003
  4.53766670,   0.99999717,   0.00000021,   0.00003293,  -0.00000001,   0.00000046,   0.00000001,   0.00026790,  -0.00012003,  -0.00002069,   0.00000631,   0.00000217,   0.00000003
  4.60425000,   0.99999526,   0.00000290,   0.00002088,  -0.00000001,   0.00000023,   0.00000001,   0.00026800,  -0.00012011,  -0.00002069,   0.00000631,   0.00000217,   0.00000003
  4.67083330,   0.99999652,   0.00000037,   0.00004182,  -0.00000001,   0.00000058,   0.00000001,   0.00026811,  -0.00012020,  -0.00002069,   0.00000631,   0.00000217,   0.00000003
  4.73741670,   0.99999711,   0.00000006,   0.00003340,  -0.00000001,   0.00000047,   0.00000001,   0.00026821,  -0.00012029,  -0.00002070,   0.00000631,   0.00000217,   0.00000003
  4.80400000,   0.99999308,   0.00000134,   0.00008760,  -0.00000001,   0.00000123,   0.00000001,   0.00026831,  -0.00012038,  -0.00002069,   0.00000632,   0.00000217,   0.00000003
  4.87058330,   0.99999629,   0.00000022,   0.00004686,  -0.00000001,   0.00000065,   0.00000000,   0.00026841,  -0.00012046,  -0.00002070,   0.00000632,   0.00000217,   0.00000003
  4.93716670,   0.99999692,   0.00000004,   0.00003689,  -0.00000001,   0.00000052,   0.00000001,   0.00026850,  -0.00012054,  -0.00002070,   0.00000632,   0.00000217,   0.00000003
  5.00375000,   0.99999673,   0.00000004,   0.00003804,  -0.00000001,   0.00000053,   0.00000001,   0.00026860,  -0.00012062,  -0.00002070,   0.00000632,   0.00000217,   0.00000003
  5.07033330,   0.99999568,   0.00000237,   0.00001677,  -0.00000002,   0.00000020,   0.00000001,   0.00026869,  -0.00012070,  -0.00002071,   0.00000633,   0.00000217,   0.00000003
  5.13691670,   0.99999659,   0.00000035,   0.00003627,  -0.00000001,   0.00000050,   0.00000001,   0.00026879,  -0.00012078,  -0.00002071,   0.00000633,   0.00000217,   0.00000003
  5.20350000,   0.99999782,   0.00000475,  -0.00006366,  -0.00000002,  -0.00000100,   0.00000000,   0.00026888,  -0.00012086,  -0.00002071,   0.00000633,   0.00000218,   0.00000003
  5.27008330,   0.99999723,   0.00000097,   0.00001772,  -0.00000001,   0.00000022,   0.00000001,   0.00026897,  -0.00012094,  -0.00002071,   0.00000633,   0.00000218,   0.00000003
  5.33666670,   0.99999632,  -0.00000087,   0.00006635,  -0.00000001,   0.00000097,   0.00000000,   0.00026906,  -0.00012102,  -0.00002071,   0.00000633,   0.00000218,   0.00000003
  5.40325000,   0.99999670,  -0.00000054,   0.00005206,  -0.00000001,   0.00000076,   0.00000000,   0.00026915,  -0.00012109,  -0.00002072,   0.00000633,   0.00000218,   0.00000003
  5.46983330,   0.99999692,   0.00000020,   0.00003164,  -0.00000001,   0.00000044,   0.00000001,   0.00026923,  -0.00012116,  -0.00002072,   0.00000634,   0.00000218,   0.00000003
  5.53641670,   0.99999664,   0.00000008,   0.00003620,  -0.00000002,   0.00000051,   0.00000001,   0.00026932,  -0.00012124,  -0.00002072,   0.00000634,   0.00000218,   0.00000003
  5.60300000,   0.99999605,   0.00000224,   0.00000886,  -0.00000002,   0.00000008,   0.00000001,   0.00026940,  -0.00012131,  -0.00002072,   0.00000634,   0.00000218,   0.00000003
  5.66958330,   0.99999680,   0.00000047,   0.00002752,  -0.00000002,   0.00000037,   0.00000000,   0.00026949,  -0.00012138,  -0.00002073,   0.00000634,   0.00000218,   0.00000003
  5.73616670,   0.99999684,   0.00000009,   0.00003271,  -0.00000002,   0.00000046,   0.00000001,   0.00026957,  -0.00012145,  -0.00002073,   0.00000634,   0.00000218,   0.00000003
  5.80275000,   0.99999556,   0.00000211,   0.00002230,  -0.00000003,   0.00000027,  -0.00000000,   0.00026965,  -0.00012152,  -0.00002073,   0.00000635,   0.00000218,   0.00000003
  5.86933330,   0.99999639,   0.00000029,   0.00004014,  -0.00000002,   0.00000056,   0.00000000,   0.00026973,  -0.00012159,  -0.00002073,   0.00000635,   0.00000218,   0.00000003
  5.93591670,   0.99999687,   0.00000006,   0.00003355,  -0.00000002,   0.00000047,   0.00000001,   0.00026981,  -0.00012165,  -0.00002073,   0.00000635,   0.00000218,   0.00000003
  6.00250000,   0.99999373,   0.00000103,   0.00007644,  -0.00000002,   0.00000108,  -0.00000000,   0.00026989,  -0.00012172,  -0.00002073,   0.00000635,   0.00000219,   0.00000003
  6.06908330,   0.99999656,   0.00000039,   0.00003436,  -0.00000002,   0.00000047,   0.00000001,   0.00026997,  -0.00012178,  -0.00002074,   0.00000635,   0.00000219,   0.00000003
  6.13566670,   0.99999705,  -0.00000017,   0.00003336,  -0.00000002,   0.00000047,   0.00000001,   0.00027004,  -0.00012185,  -0.00002074,   0.00000635,   0.00000219,   0.00000003
  6.20225000,   0.99999451,   0.00000171,   0.00005117,  -0.00000003,   0.00000068,   0.00000000,   0.00027012,  -0.00012191,  -0.00002074,   0.00000635,   0.00000219,   0.00000003
  6.26883330,   0.99999679,   0.00000061,   0.00002529,  -0.00000002,   0.00000033,   0.00000001,   0.00027019,  -0.00012197,  -0.00002075,   0.00000636,   0.00000219,   0.00000003
  6.33541670,   0.99999661,  -0.00000006,   0.00003869,  -0.00000002,   0.00000055,   0.00000001,   0.00027027,  -0.00012203,  -0.00002075,   0.00000636,   0.00000219,   0.00000003
  6.40200000,   0.99999784,   0.00000343,  -0.00004711,  -0.00000004,  -0.00000076,   0.00000001,   0.00027034,  -0.00012209,  -0.00002075,   0.00000636,   0.00000219,   0.00000003
  6.46858330,   0.99999638,   0.00000030,   0.00003701,  -0.00000003,   0.00000051,   0.00000001,   0.00027041,  -0.00012215,  -0.00002075,   0.00000636,   0.00000219,   0.00000003
  6.53516670,   0.99999663,  -0.00000040,   0.00004393,  -0.00000002,   0.00000063,   0.00000001,   0.00027048,  -0.00012221,  -0.00002075,   0.00000636,   0.00000219,   0.00000003
  6.60175000,   0.99999666,   0.00000005,   0.00003340,  -0.00000003,   0.00000047,   0.00000001,   0.00027055,  -0.00012227,  -0.00002076,   0.00000636,   0.00000219,   0.00000003
  6.66833330,   0.99999647,   0.00000003,   0.00003635,  -0.00000003,   0.00000051,   0.00000001,   0.00027062,  -0.00012232,  -0.00002076,   0.00000637,   0.00000219,   0.00000003
  6.73491670,   0.99999603,   0.00000167,   0.00001551,  -0.00000003,   0.00000019,   0.00000001,   0.00027069,  -0.00012238,  -0.00002076,   0.00000637,   0.00000219,   0.00000003
  6.80150000,   0.99999639,   0.00000022,   0.00003575,  -0.00000003,   0.00000050,   0.00000001,   0.00027075,  -0.00012244,  -0.00002076,   0.00000637,   0.00000220,   0.00000003
  6.86808330,   0.99999837,   0.00000386,  -0.00006628,  -0.00000004,  -0.00000103,   0.00000001,   0.00027082,  -0.00012249,  -0.00002077,   0.00000637,   0.00000220,   0.00000003
  6.93466670,   0.99999675,   0.00000061,   0.00002385,  -0.00000002,   0.00000031,   0.00000000,   0.00027089,  -0.00012254,  -0.00002077,   0.00000637,   0.00000220,   0.00000003
  7.00125000,   0.99999649,  -0.00000047,   0.00004879,  -0.00000002,   0.00000069,   0.00000001,   0.00027095,  -0.00012260,  -0.00002077,   0.00000637,   0.00000220,   0.00000003
  7.06783330,   0.99999668,   0.00000007,   0.00003374,  -0.00000003,   0.00000047,   0.00000001,   0.00027101,  -0.00012265,  -0.00002077,   0.00000637,   0.00000220,   0.00000003
  7.13441670,   0.99999296,  -0.00000062,   0.00011773,  -0.00000003,   0.00000168,   0.00000001,   0.00027107,  -0.00012270,  -0.00002077,   0.00000638,   0.00000220,   0.00000003
  7.20100000,   0.99999579,  -0.00000020,   0.00005485,  -0.00000002,   0.00000078,   0.00000001,   0.00027114,  -0.00012275,  -0.00002078,   0.00000638,   0.00000220,   0.00000003
  7.26758330,   0.99999649,  -0.00000004,   0.00003833,  -0.00000003,   0.00000054,   0.00000001,   0.00027120,  -0.00012280,  -0.00002078,   0.00000638,   0.00000220,   0.00000003
  7.33416670,   0.99999640,  -0.00000001,   0.00003788,  -0.00000003,   0.00000053,   0.00000001,   0.00027126,  -0.00012285,  -0.00002078,   0.00000638,   0.00000220,   0.00000003
  7.40075000,   0.99999584,   0.00000128,   0.00002499,  -0.00000003,   0.00000033,   0.00000001,   0.00027132,  -0.00012290,  -0.00002079,   0.00000638,   0.00000220,   0.00000003
  7.46733330,   0.99999626,   0.00000015,   0.00003767,  -0.00000003,   0.00000053,   0.00000001,   0.00027138,  -0.00012295,  -0.00002079,   0.00000638,   0.00000220,   0.00000003
  7.53391670,   0.99999768,   0.00000291,  -0.00003777,  -0.00000003,  -0.00000061,   0.00000001,   0.00027144,  -0.00012300,  -0.00002080,   0.00000638,   0.00000220,   0.00000003
  7.60050000,   0.99999622,   0.00000019,   0.00003869,  -0.00000003,   0.00000054,   0.00000001,   0.00027150,  -0.00012304,  -0.00002079,   0.00000638,   0.00000220,   0.00000003
  7.66708330,   0.99999630,  -0.00000037,   0.00004689,  -0.00000003,   0.00000067,   0.00000000,   0.00027155,  -0.00012309,  -0.00002080,   0.00000639,   0.00000221,   0.00000003
  7.73366670,   0.99999656,   0.00000008,   0.00003280,  -0.00000003,   0.00000046,   0.00000001,   0.00027161,  -0.00012314,  -0.00002080,   0.00000639,   0.00000221,   0.00000003
  7.80025000,   0.99999634,   0.00000003,   0.00003657,  -0.00000003,   0.00000051,   0.00000001,   0.00027167,  -0.00012318,  -0.00002080,   0.00000639,   0.00000221,   0.00000003
  7.86683330,   0.99999640,   0.00000145,   0.00001027,  -0.00000003,   0.00000011,   0.00000001,   0.00027172,  -0.00012323,  -0.00002081,   0.00000639,   0.00000221,   0.00000003
  7.93341670,   0.99999676,   0.00000046,   0.00002242,  -0.00000003,   0.00000030,   0.00000001,   0.00027178,  -0.00012327,  -0.00002081,   0.00000639,   0.00000221,   0.00000003
  8.00000000,   0.99999636,  -0.00000024,   0.00004217,  -0.00000003,   0.00000060,   0.00000001,   0.00027183,  -0.00012331,  -0.00002081,   0.00000639,   0.00000221,   0.00000003
  8.00025000,   0.97500237,   0.00000356,   0.00002325,   0.00000016,   0.00000028,   0.00000001,   0.00026649,  -0.00012129,  -0.00002040,   0.00000627,   0.00000217,   0.00000003
  8.00050000,   0.95000283,   0.00000379,   0.00004442,   0.00000020,   0.00000058,   0.00000001,   0.00026063,  -0.00011893,  -0.00001995,   0.00000613,   0.00000213,   0.00000003
  8.00075000,   0.92500478,   0.00000668,   0.00004956,   0.00000026,   0.00000059,   0.00000001,   0.00025465,  -0.00011648,  -0.00001950,   0.00000599,   0.00000209,   0.00000003
  8.00100000,   0.90000097,   0.00000513,   0.00004017,   0.00000024,   0.00000062,  -0.00000001,   0.00024860,  -0.00011396,  -0.00001905,   0.00000585,   0.00000205,   0.00000003
  8.00125000,   0.87500275,   0.00000115,   0.00006809,   0.00000015,   0.00000090,   0.00000001,   0.00024251,  -0.00011141,  -0.00001860,   0.00000571,   0.00000201,   0.00000003
  8.00150000,   0.85000355,   0.00000129,   0.00005245,   0.00000013,   0.00000069,   0.00000000,   0.00023640,  -0.00010883,  -0.00001815,   0.00000556,   0.00000197,   0.00000003
  8.00175000,   0.82499686,  -0.00000142,   0.00004915,  -0.00000001,   0.00000069,   0.00000001,   0.00023026,  -0.00010624,  -0.00001770,   0.00000542,   0.00000192,   0.00000002
  8.00200000,   0.79999954,   0.00000160,   0.00003308,   0.00000001,   0.00000041,   0.00000000,   0.00022413,  -0.00010364,  -0.00001726,   0.00000528,   0.00000188,   0.00000002
  8.00225000,   0.77499798,   0.00000070,   0.00004379,  -0.00000000,   0.00000061,   0.00000001,   0.00021798,  -0.00010103,  -0.00001680,   0.00000513,   0.00000184,   0.00000002
  8.00250000,   0.74999153,   0.00000399,   0.00006298,  -0.00000002,   0.00000088,   0.00000000,   0.00021183,  -0.00009841,  -0.00001635,   0.00000499,   0.00000180,   0.00000002
  8.00275000,   0.72499679,  -0.00000106,   0.00004018,  -0.00000004,   0.00000058,   0.00000001,   0.00020568,  -0.00009580,  -0.00001590,   0.00000484,   0.00000176,   0.00000002
  8.00300000,   0.69999682,  -0.00000114,   0.00004457,  -0.00000004,   0.00000064,   0.00000000,   0.00019952,  -0.00009318,  -0.00001545,   0.00000470,   0.00000171,   0.00000002
  8.00325000,   0.67499770,  -0.00000038,   0.00003374,  -0.00000003,   0.00000048,   0.00000001,   0.00019337,  -0.00009056,  -0.00001500,   0.00000456,   0.00000167,   0.00000002
  8.00350000,   0.64999797,  -0.00000065,   0.00004219,  -0.00000002,   0.00000060,   0.00000000,   0.00018721,  -0.00008794,  -0.00001455,   0.00000441,   0.00000163,   0.00000002
  8.00375000,   0.62499857,  -0.00000031,   0.00003741,  -0.00000002,   0.00000053,   0.00000001,   0.00018105,  -0.00008532,  -0.00001410,   0.00000427,   0.00000159,   0.00000002
  8.00400000,   0.59999827,  -0.00000013,   0.00004373,  -0.00000002,   0.00000062,   0.00000000,   0.00017489,  -0.00008270,  -0.00001365,   0.00000412,   0.00000155,   0.00000002
  8.00425000,   0.57499700,  -0.00000069,   0.00003870,  -0.00000005,   0.00000056,   0.00000001,   0.00016873,  -0.00008007,  -0.00001320,   0.00000398,   0.00000150,   0.00000002
  8.00450000,   0.54999845,   0.00000076,   0.00004820,  -0.00000000,   0.00000067,   0.00000001,   0.00016258,  -0.00007745,  -0.00001275,   0.00000383,   0.00000146,   0.00000002
  8.00475000,   0.52499828,  -0.00000012,   0.00003827,  -0.00000003,   0.00000054,   0.00000001,   0.00015641,  -0.00007482,  -0.00001230,   0.00000369,   0.00000142,   0.00000002
  8.00500000,   0.49999840,  -0.00000010,   0.00003772,  -0.00000003,   0.00000053,   0.00000001,   0.00015025,  -0.00007220,  -0.00001185,   0.00000355,   0.00000138,   0.00000002
  8.00525000,   0.47499833,  -0.00000016,   0.00004070,  -0.00000003,   0.00000058,   0.00000001,   0.00014409,  -0.00006957,  -0.00001140,   0.00000340,   0.00000134,   0.00000001
  8.00550000,   0.44999892,   0.00000018,   0.00002338,  -0.00000003,   0.00000033,   0.00000001,   0.00013793,  -0.00006695,  -0.00001095,   0.00000326,   0.00000129,   0.00000001
  8.00575000,   0.42499892,  -0.00000098,   0.00003882,  -0.00000003,   0.00000055,   0.00000000,   0.00013177,  -0.00006432,  -0.00001050,   0.00000311,   0.00000125,   0.00000001
  8.00600000,   0.39999872,  -0.00000062,   0.00004131,  -0.00000003,   0.00000059,   0.00000001,   0.00012560,  -0.00006169,  -0.00001005,   0.00000297,   0.00000121,   0.00000001
  8.00625000,   0.37499887,  -0.00000031,   0.00004031,  -0.00000003,   0.00000057,   0.00000001,   0.00011944,  -0.00005906,  -0.00000960,   0.00000282,   0.00000117,   0.00000001
  8.00650000,   0.34999693,   0.00000072,   0.00006033,  -0.00000002,   0.00000085,   0.00000001,   0.00011327,  -0.00005644,  -0.00000915,   0.00000268,   0.00000113,   0.00000001
  8.00675000,   0.32499867,  -0.00000033,   0.00004366,  -0.00000003,   0.00000062,   0.00000001,   0.00010711,  -0.00005381,  -0.00000870,   0.00000253,   0.00000108,   0.00000001
  8.00700000,   0.29999905,  -0.00000016,   0.00003922,  -0.00000003,   0.00000055,   0.00000001,   0.00010094,  -0.00005118,  -0.00000825,   0.00000239,   0.00000104,   0.00000001
  8.00725000,   0.27499919,  -0.00000009,   0.00003761,  -0.00000003,   0.00000053,   0.00000001,   0.00009478,  -0.00004855,  -0.00000780,   0.00000224,   0.00000100,   0.00000001
  8.00750000,   0.24999921,  -0.00000016,   0.00003967,  -0.00000003,   0.00000056,   0.00000001,   0.00008861,  -0.00004592,  -0.00000735,   0.00000210,   0.00000096,   0.00000001
  8.00775000,   0.22499907,  -0.00000013,   0.00004245,  -0.00000003,   0.00000060,   0.00000001,   0.00008244,  -0.00004329,  -0.00000690,   0.00000195,   0.00000092,   0.00000001
  8.00800000,   0.19999921,  -0.00000023,   0.00004212,  -0.00000003,   0.00000060,   0.00000001,   0.00007627,  -0.00004066,  -0.00000645,   0.00000181,   0.00000087,   0.00000000
  8.00825000,   0.17499940,  -0.00000021,   0.00004121,  -0.00000003,   0.00000058,   0.00000001,   0.00007011,  -0.00003802,  -0.00000600,   0.00000166,   0.00000083,   0.00000000
  8.00850000,   0.14999939,  -0.00000028,   0.00004362,  -0.00000003,   0.00000062,   0.00000001,   0.00006394,  -0.00003539,  -0.00000555,   0.00000152,   0.00000079,   0.00000000
  8.00875000,   0.12499954,  -0.00000025,   0.00004235,  -0.00000003,   0.00000060,   0.00000001,   0.00005777,  -0.00003276,  -0.00000510,   0.00000137,   0.00000075,   0.00000000
  8.00900000,   0.09999962,  -0.00000025,   0.00004254,  -0.00000003,   0.00000060,   0.00000001,   0.00005160,  -0.00003013,  -0.00000464,   0.00000123,   0.00000071,   0.00000000
  8.00925000,   0.07499970,  -0.00000026,   0.00004276,  -0.00000003,   0.00000061,   0.00000001,   0.00004543,  -0.00002749,  -0.00000419,   0.00000109,   0.00000066,   0.00000000
  8.00950000,   0.04999979,  -0.00000026,   0.00004288,  -0.00000003,   0.00000061,   0.00000001,   0.00003926,  -0.00002486,  -0.00000374,   0.00000094,   0.00000062,   0.00000000
  8.00975000,   0.02499991,  -0.00000024,   0.00004211,  -0.00000003,   0.00000060,   0.00000001,   0.00003309,  -0.00002223,  -0.00000329,   0.00000080,   0.00000058,  -0.00000000
  8.01000000,   0.00000000,  -0.00000024,   0.00004214,  -0.00000003,   0.00000060,   0.00000001,   0.00002692,  -0.00001959,  -0.00000284,   0.00000065,   0.00000054,  -0.00000000
  8.14316670,   0.00000000,  -0.00000024,   0.00004217,  -0.00000003,   0.00000060,   0.00000001,   0.00002112,  -0.00001543,  -0.00000212,   0.00000052,   0.00000043,  -0.00000000
  8.27633330,   0.00000000,  -0.00000024,   0.00004211,  -0.00000003,   0.00000060,   0.00000001,   0.00001914,  -0.00001444,  -0.00000163,   0.00000046,   0.00000035,  -0.00000000
  8.40950000,   0.00000000,  -0.00000024,   0.00004217,  -0.00000003,   0.00000060,   0.00000001,   0.00001768,  -0.00001373,  -0.00000126,   0.00000042,   0.00000029,  -0.00000000
  8.54266670,  -0.00000000,  -0.00000024,   0.00004219,  -0.00000003,   0.00000060,   0.00000001,   0.00001653,  -0.00001313,  -0.00000099,   0.00000039,   0.00000025,  -0.00000000
  8.67583330,   0.00000000,  -0.00000024,   0.00004203,  -0.00000003,   0.00000060,   0.00000001,   0.00001559,  -0.00001261,  -0.00000079,   0.00000037,   0.00000022,  -0.00000000
  8.80900000,   0.00000000,  -0.00000024,   0.00004217,  -0.00000003,   0.00000060,   0.00000001,   0.00001480,  -0.00001214,  -0.00000065,   0.00000035,   0.00000019,  -0.00000000
  8.94216670,  -0.00000000,  -0.00000024,   0.00004218,  -0.00000003,   0.00000060,   0.00000001,   0.00001413,  -0.00001171,  -0.00000054,   0.00000033,   0.00000017,  -0.00000000
  9.07533330,   0.00000000,  -0.00000024,   0.00004210,  -0.00000003,   0.00000060,   0.00000001,   0.00001355,  -0.00001131,  -0.00000046,   0.00000031,   0.00000016,  -0.00000000
  9.20850000,   0.00000000,  -0.00000024,   0.00004216,  -0.00000003,   0.00000060,   0.00000001,   0.00001304,  -0.00001094,  -0.00000041,   0.00000030,   0.00000014,  -0.00000000
  9.34166670,   0.00000000,  -0.00000024,   0.00004211,  -0.00000003,   0.00000060,   0.00000001,   0.00001258,  -0.00001059,  -0.00000037,   0.00000029,   0.00000014,  -0.00000000
  9.47483330,   0.00000000,  -0.00000024,   0.00004209,  -0.00000003,   0.00000060,   0.00000001,   0.00001216,  -0.00001026,  -0.00000034,   0.00000028,   0.00000013,  -0.00000000
  9.60800000,  -0.00000000,  -0.00000024,   0.00004217,  -0.00000003,   0.00000060,   0.00000001,   0.00001177,  -0.00000995,  -0.00000032,   0.00000027,   0.00000012,  -0.00000000
  9.74116670,  -0.00000000,  -0.00000024,   0.00004213,  -0.00000003,   0.00000060,   0.00000001,   0.00001141,  -0.00000965,  -0.00000030,   0.00000026,   0.00000012,  -0.00000000
  9.87433330,   0.00000000,  -0.00000023,   0.00004211,  -0.00000003,   0.00000060,   0.00000001,   0.00001107,  -0.00000936,  -0.00000029,   0.00000025,   0.00000011,  -0.00000000
 10.00750000,  -0.00000000,  -0.00000024,   0.00004214,  -0.00000003,   0.00000060,   0.00000001,   0.00001075,  -0.00000908,  -0.00000028,   0.00000025,   0.00000011,  -0.00000000
 10.14066700,   0.00000001,  -0.00000023,   0.00004210,  -0.00000003,   0.00000060,   0.00000001,   0.00001045,  -0.00000882,  -0.00000028,   0.00000024,   0.00000011,  -0.00000000
 10.27383300,  -0.00000000,  -0.00000024,   0.00004225,  -0.00000003,   0.00000060,   0.00000001,   0.00001016,  -0.00000856,  -0.00000028,   0.00000023,   0.00000011,  -0.00000000
 10.40700000,  -0.00000001,  -0.00000024,   0.00004214,  -0.00000003,   0.00000060,   0.00000001,   0.00000989,  -0.00000832,  -0.00000028,   0.00000023,   0.00000010,  -0.00000000
 10.54016700,  -0.00000001,  -0.00000024,   0.00004220,  -0.00000003,   0.00000060,   0.00000001,   0.00000962,  -0.00000808,  -0.00000028,   0.00000022,   0.00000010,  -0.00000000
 10.67333300,  -0.00000001,  -0.00000024,   0.00004218,  -0.00000003,   0.00000060,   0.00000001,   0.00000937,  -0.00000785,  -0.00000028,   0.00000021,   0.00000010,  -0.00000000
 10.80650000,  -0.00000001,  -0.00000024,   0.00004218,  -0.00000003,   0.00000060,   0.00000001,   0.00000912,  -0.00000763,  -0.00000028,   0.00000021,   0.00000010,  -0.00000000
 10.93966700,  -0.00000001,  -0.00000024,   0.00004218,  -0.00000003,   0.00000060,   0.00000001,   0.00000889,  -0.00000742,  -0.00000028,   0.00000020,   0.00000010,  -0.00000000
 11.07283300,  -0.00000000,  -0.00000024,   0.00004210,  -0.00000003,   0.00000060,   0.00000001,   0.00000866,  -0.00000721,  -0.00000028,   0.00000020,   0.00000009,  -0.00000000
 11.20600000,  -0.00000000,  -0.00000024,   0.00004211,  -0.00000003,   0.00000060,   0.00000001,   0.00000844,  -0.00000701,  -0.00000028,   0.00000019,   0.00000009,  -0.00000000
 11.33916700,  -0.00000000,  -0.00000024,   0.00004214,  -0.00000003,   0.00000060,   0.00000001,   0.00000823,  -0.00000682,  -0.00000028,   0.00000019,   0.00000009,  -0.00000000
 11.47233300,  -0.00000000,  -0.00000024,   0.00004214,  -0.00000003,   0.00000060,   0.00000001,   0.00000803,  -0.00000663,  -0.00000028,   0.00000018,   0.00000009,  -0.00000000
 11.60550000,  -0.00000000,  -0.00000024,   0.00004216,  -0.00000003,   0.00000060,   0.00000001,   0.00000783,  -0.00000645,  -0.00000028,   0.00000018,   0.00000009,  -0.00000000
 11.73866700,   0.00000000,  -0.00000024,   0.00004215,  -0.00000003,   0.00000060,   0.00000001,   0.00000764,  -0.00000628,  -0.00000029,   0.00000018,   0.00000009,  -0.00000000
 11.87183300,   0.00000000,  -0.00000024,   0.00004214,  -0.00000003,   0.00000060,   0.00000001,   0.00000745,  -0.00000611,  -0.00000029,   0.00000017,   0.00000009,  -0.00000000
 12.00500000,   0.00000000,  -0.00000024,   0.00004215,  -0.00000003,   0.00000060,   0.00000001,   0.00000727,  -0.00000595,  -0.00000029,   0.00000017,   0.00000009,  -0.00000000
 12.13816700,   0.00000000,  -0.00000024,   0.00004215,  -0.00000003,   0.00000060,   0.00000001,   0.00000710,  -0.00000579,  -0.00000029,   0.00000016,   0.00000009,  -0.00000000
 12.27133300,   0.00000000,  -0.00000024,   0.00004219,  -0.00000003,   0.00000060,   0.00000001,   0.00000694,  -0.00000564,  -0.00000029,   0.00000016,   0.00000008,  -0.00000000
 12.40450000,  -0.00000000,  -0.00000024,   0.00004217,  -0.00000003,   0.00000060,   0.00000001,   0.00000677,  -0.00000549,  -0.00000029,   0.00000016,   0.00000008,  -0.00000000
 12.53766700,  -0.00000000,  -0.00000024,   0.00004216,  -0.00000003,   0.00000060,   0.00000001,   0.00000662,  -0.00000535,  -0.00000029,   0.00000015,   0.00000008,  -0.00000000
 12.67083300,   0.00000000,  -0.00000024,   0.00004215,  -0.00000003,   0.00000060,   0.00000001,   0.00000647,  -0.00000521,  -0.00000029,   0.00000015,   0.00000008,  -0.00000000
 12.80400000,  -0.00000000,  -0.00000024,   0.00004215,  -0.00000003,   0.00000060,   0.00000001,   0.00000632,  -0.00000508,  -0.00000030,   0.00000015,   0.00000008,  -0.00000000
 12.93716700,  -0.00000000,  -0.00000024,   0.00004216,  -0.00000003,   0.00000060,   0.00000001,   0.00000618,  -0.00000495,  -0.00000030,   0.00000014,   0.00000008,  -0.00000000
 13.07033300,  -0.00000000,  -0.00000024,   0.00004221,  -0.00000003,   0.00000060,   0.00000001,   0.00000604,  -0.00000482,  -0.00000030,   0.00000014,   0.00000008,  -0.00000000
 13.20350000,  -0.00000000,  -0.00000024,   0.00004216,  -0.00000003,   0.00000060,   0.00000001,   0.00000591,  -0.00000470,  -0.00000030,   0.00000014,   0.00000008,  -0.00000000
 13.33666700,  -0.00000000,  -0.00000024,   0.00004212,  -0.00000003,   0.00000060,   0.00000001,   0.00000578,  -0.00000459,  -0.00000030,   0.00000013,   0.00000008,  -0.00000000
 13.46983300,  -0.00000000,  -0.00000024,   0.00004216,  -0.00000003,   0.00000060,   0.00000001,   0.00000566,  -0.00000447,  -0.00000030,   0.00000013,   0.00000008,  -0.00000000
 13.60300000,   0.00000000,  -0.00000024,   0.00004215,  -0.00000003,   0.00000060,   0.00000001,   0.00000554,  -0.00000437,  -0.00000030,   0.00000013,   0.00000008,  -0.00000000
 13.73616700,   0.00000000,  -0.00000024,   0.00004216,  -0.00000003,   0.00000060,   0.00000001,   0.00000543,  -0.00000426,  -0.00000030,   0.00000013,   0.00000008,  -0.00000000
 13.86933300,   0.00000000,  -0.00000024,   0.00004214,  -0.00000003,   0.00000060,   0.00000001,   0.00000531,  -0.00000416,  -0.00000030,   0.00000012,   0.00000007,  -0.00000000
 14.00250000,   0.00000000,  -0.00000024,   0.00004214,  -0.00000003,   0.00000060,   0.00000001,   0.00000521,  -0.00000406,  -0.00000030,   0.00000012,   0.00000007,  -0.00000000
 14.13566700,   0.00000000,  -0.00000024,   0.00004214,  -0.00000003,   0.00000060,   0.00000001,   0.00000510,  -0.00000396,  -0.00000030,   0.00000012,   0.00000007,  -0.00000000
 14.26883300,   0.00000000,  -0.00000024,   0.00004214,  -0.00000003,   0.00000060,   0.00000001,   0.00000500,  -0.00000387,  -0.00000030,   0.00000012,   0.00000007,  -0.00000000
 14.40200000,   0.00000000,  -0.00000024,   0.00004215,  -0.00000003,   0.00000060,   0.00000001,   0.00000490,  -0.00000378,  -0.00000030,   0.00000011,   0.00000007,  -0.00000000
 14.53516700,   0.00000000,  -0.00000024,   0.00004216,  -0.00000003,   0.00000060,   0.00000001,   0.00000481,  -0.00000370,  -0.00000030,   0.00000011,   0.00000007,  -0.00000000
 14.66833300,   0.00000000,  -0.00000024,   0.00004215,  -0.00000003,   0.00000060,   0.00000001,   0.00000472,  -0.00000361,  -0.00000030,   0.00000011,   0.00000007,  -0.00000000
 14.80150000,  -0.00000000,  -0.00000024,   0.00004216,  -0.00000003,   0.00000060,   0.00000001,   0.00000463,  -0.00000353,  -0.00000030,   0.00000011,   0.00000007,  -0.00000000
 14.93466700,   0.00000000,  -0.00000024,   0.00004215,  -0.00000003,   0.00000060,   0.00000001,   0.00000454,  -0.00000346,  -0.00000030,   0.00000011,   0.00000007,  -0.00000000
 15.06783300,  -0.00000000,  -0.00000024,   0.00004216,  -0.00000003,   0.00000060,   0.00000001,   0.00000446,  -0.00000338,  -0.00000030,   0.00000010,   0.00000007,  -0.00000000
 15.20100000,  -0.00000000,  -0.00000024,   0.00004215,  -0.00000003,   0.00000060,   0.00000001,   0.00000438,  -0.00000331,  -0.00000030,   0.00000010,   0.00000007,  -0.00000000
 15.33416700,  -0.00000000,  -0.00000024,   0.00004214,  -0.00000003,   0.00000060,   0.00000001,   0.00000430,  -0.00000324,  -0.00000031,   0.00000010,   0.00000007,  -0.00000000
 15.46733300,  -0.00000000,  -0.00000024,   0.00004215,  -0.00000003,   0.00000060,   0.00000001,   0.00000423,  -0.00000317,  -0.00000031,   0.00000010,   0.00000007,  -0.00000000
 15.60050000,  -0.00000000,  -0.00000024,   0.00004215,  -0.00000003,   0.00000060,   0.00000001,   0.00000415,  -0.00000310,  -0.00000031,   0.00000010,   0.00000007,  -0.00000000
 15.73366700,   0.00000000,  -0.00000024,   0.00004214,  -0.00000003,   0.00000060,   0.00000001,   0.00000408,  -0.00000304,  -0.00000031,   0.00000010,   0.00000007,  -0.00000000
 15.86683300,  -0.00000000,  -0.00000024,   0.00004216,  -0.00000003,   0.00000060,   0.00000001,   0.00000401,  -0.00000298,  -0.00000031,   0.00000009,   0.00000007,  -0.00000000
 16.00000000,  -0.00000000,  -0.00000024,   0.00004216,  -0.00000003,   0.00000060,   0.00000001,   0.00000395,  -0.00000292,  -0.00000031,   0.00000009,   0.00000007,  -0.00000000
