Time (m)    , Stress_xx (MPa), Stress_yy (MPa), Stress_zz (MPa), Stress_xy (MPa), Stress_xz (MPa), Stress_yz (MPa), Strain_xx   , Strain_yy   , Strain_zz   , Strain_xy   , Strain_xz   , Strain_yz   
  0.00000000,   0.00000000,   0.00000000,   0.00000000,   0.00000000,   0.00000000,   0.00000000,   0.00000000,   0.00000000,   0.00000000,   0.00000000,   0.00000000,   0.00000000
  0.00050000,   0.05000001,   0.00000002,  -0.00000139,  -0.00000000,  -0.00000002,   0.00000000,   0.00001121,  -0.00000437,  -0.00000086,   0.00000015,   0.00000006,   0.00000000
  0.00100000,   0.09999982,  -0.00000007,  -0.00000305,  -0.00000001,  -0.00000004,   0.00000000,   0.00002322,  -0.00000932,  -0.00000175,   0.00000032,   0.00000013,   0.00000000
  0.00150000,   0.14999902,  -0.00000075,   0.00000140,  -0.00000003,   0.00000004,  -0.00000000,   0.00003537,  -0.00001440,  -0.00000265,   0.00000048,   0.00000020,   0.00000001
  0.00200000,   0.19999847,  -0.00000110,  -0.00000461,  -0.00000004,  -0.00000004,  -0.00000000,   0.00004760,  -0.00001954,  -0.00000355,   0.00000065,   0.00000027,   0.00000001
  0.00250000,   0.24999730,  -0.00000184,  -0.00000978,  -0.00000006,  -0.00000015,   0.00000001,   0.00005985,  -0.00002471,  -0.00000445,   0.00000082,   0.00000034,   0.00000001
  0.00300000,   0.29999537,  -0.00000276,   0.00000309,  -0.00000007,   0.00000011,  -0.00000001,   0.00007212,  -0.00002990,  -0.00000535,   0.00000098,   0.00000041,   0.00000001
  0.00350000,   0.34999541,  -0.00000251,  -0.00000276,  -0.00000007,   0.00000001,   0.00000000,   0.00008440,  -0.00003510,  -0.00000625,   0.00000115,   0.00000048,   0.00000001
  0.00400000,   0.39999606,  -0.00000223,   0.00000488,  -0.00000006,   0.00000011,  -0.00000000,   0.00009668,  -0.00004030,  -0.00000715,   0.00000132,   0.00000054,   0.00000001
  0.00450000,   0.44999730,  -0.00000086,  -0.00000164,  -0.00000005,  -0.00000000,   0.00000000,   0.00010897,  -0.00004551,  -0.00000805,   0.00000149,   0.00000061,   0.00000002
  0.00500000,   0.50000361,  -0.00000840,   0.00002831,  -0.00000003,   0.00000048,  -0.00000002,   0.00012126,  -0.00005072,  -0.00000894,   0.00000166,   0.00000068,   0.00000002
  0.00550000,   0.54999994,  -0.00000079,  -0.00000084,  -0.00000002,   0.00000000,  -0.00000000,   0.00013356,  -0.00005593,  -0.00000985,   0.00000182,   0.00000075,   0.00000002
  0.00600000,   0.59999915,   0.00000087,   0.00000060,  -0.00000001,   0.00000000,  -0.00000000,   0.00014585,  -0.00006114,  -0.00001075,   0.00000199,   0.00000082,   0.00000002
  0.00650000,   0.65000626,  -0.00000551,  -0.00001789,   0.00000001,  -0.00000019,   0.00000001,   0.00015815,  -0.00006636,  -0.00001165,   0.00000216,   0.00000089,   0.00000002
  0.00700000,   0.70000049,  -0.00000067,   0.00000312,   0.00000001,   0.00000006,   0.00000000,   0.00017045,  -0.00007157,  -0.00001254,   0.00000233,   0.00000096,   0.00000002
  0.00750000,   0.74999916,   0.00000092,  -0.00000231,   0.00000000,  -0.00000004,   0.00000000,   0.00018275,  -0.00007679,  -0.00001344,   0.00000250,   0.00000103,   0.00000003
  0.00800000,   0.80000376,  -0.00000704,   0.00002526,   0.00000000,   0.00000044,  -0.00000000,   0.00019506,  -0.00008202,  -0.00001434,   0.00000266,   0.00000110,   0.00000003
  0.00850000,   0.84999921,  -0.00000289,   0.00003150,  -0.00000001,   0.00000051,  -0.00000001,   0.00020736,  -0.00008724,  -0.00001524,   0.00000283,   0.00000117,   0.00000003
  0.00900000,   0.89999841,   0.00000031,  -0.00000257,  -0.00000001,  -0.00000003,  -0.00000000,   0.00021967,  -0.00009246,  -0.00001615,   0.00000300,   0.00000123,   0.00000003
  0.00950000,   0.94999823,   0.00000020,   0.00000151,  -0.00000002,   0.00000001,  -0.00000000,   0.00023198,  -0.00009769,  -0.00001705,   0.00000317,   0.00000130,   0.00000003
  0.01000000,   1.00000460,  -0.00000403,  -0.00004383,  -0.00000002,  -0.00000054,  -0.00000000,   0.00024429,  -0.00010292,  -0.00001795,   0.00000334,   0.00000137,   0.00000003
  0.07658333,   1.00001860,   0.00000592,  -0.00007596,   0.00000031,  -0.00000114,  -0.00000003,   0.00024876,  -0.00010635,  -0.00001836,   0.00000340,   0.00000143,   0.00000003
  0.14316667,   1.00000780,  -0.00000244,  -0.00004227,   0.00000009,  -0.00000057,  -0.00000000,   0.00025028,  -0.00010722,  -0.00001869,   0.00000342,   0.00000148,   0.00000003
  0.20975000,   1.00001050,  -0.00000002,  -0.00004143,   0.00000011,  -0.00000056,   0.00000001,   0.00025144,  -0.00010780,  -0.00001897,   0.00000344,   0.00000153,   0.00000003
  0.27633333,   1.00000800,   0.00000040,   0.00000075,   0.00000013,  -0.00000021,   0.00000003,   0.00025240,  -0.00010827,  -0.00001922,   0.00000346,   0.00000157,   0.00000003
  0.34291667,   1.00001660,   0.00000508,  -0.00003212,   0.00000020,  -0.00000047,  -0.00000001,   0.00025323,  -0.00010867,  -0.00001943,   0.00000347,   0.00000160,   0.00000003
  0.40950000,   1.00001810,   0.00000679,  -0.00002703,   0.00000022,  -0.00000055,  -0.00000001,   0.00025396,  -0.00010904,  -0.00001960,   0.00000348,   0.00000163,   0.00000003
  0.47608333,   1.00001840,   0.00000668,  -0.00003530,   0.00000022,  -0.00000037,   0.00000003,   0.00025461,  -0.00010938,  -0.00001975,   0.00000349,   0.00000165,   0.00000003
  0.54266667,   1.00001540,   0.00000456,  -0.00003322,   0.00000018,  -0.00000047,  -0.00000000,   0.00025520,  -0.00010970,  -0.00001988,   0.00000350,   0.00000167,   0.00000003
  0.60925000,   1.00003160,  -0.00000209,  -0.00005150,   0.00000021,   0.00000101,  -0.00000002,   0.00025574,  -0.00011001,  -0.00001999,   0.00000351,   0.00000169,   0.00000003
  0.67583333,   1.00001660,   0.00000535,  -0.00003605,   0.00000017,  -0.00000032,   0.00000003,   0.00025622,  -0.00011030,  -0.00002008,   0.00000352,   0.00000171,   0.00000003
  0.74241667,   1.00002040,   0.00000315,  -0.00003668,   0.00000018,  -0.00000024,  -0.00000001,   0.00025667,  -0.00011057,  -0.00002016,   0.00000353,   0.00000172,   0.00000003
  0.80900000,   1.00002810,   0.00000116,  -0.00004973,   0.00000021,   0.00000042,  -0.00000002,   0.00025709,  -0.00011084,  -0.00002023,   0.00000353,   0.00000173,   0.00000003
  0.87558333,   1.00001370,   0.00000323,  -0.00003598,   0.00000015,  -0.00000054,  -0.00000000,   0.00025747,  -0.00011109,  -0.00002028,   0.00000354,   0.00000174,   0.00000003
  0.94216667,   1.00001670,  -0.00000250,  -0.00005863,   0.00000012,  -0.00000029,   0.00000001,   0.00025782,  -0.00011134,  -0.00002033,   0.00000354,   0.00000175,   0.00000003
  1.00875000,   1.00001390,  -0.00000150,  -0.00003853,   0.00000011,  -0.00000018,  -0.00000001,   0.00025816,  -0.00011157,  -0.00002037,   0.00000355,   0.00000176,   0.00000003
  1.07533330,   1.00001340,   0.00000009,  -0.00004319,   0.00000009,  -0.00000046,  -0.00000001,   0.00025848,  -0.00011180,  -0.00002041,   0.00000355,   0.00000177,   0.00000003
  1.14191670,   1.00001700,  -0.00000120,  -0.00005166,   0.00000009,  -0.00000022,   0.00000000,   0.00025878,  -0.00011202,  -0.00002044,   0.00000356,   0.00000177,   0.00000003
  1.20850000,   1.00001490,   0.00000076,  -0.00003790,   0.00000010,  -0.00000031,  -0.00000001,   0.00025906,  -0.00011223,  -0.00002046,   0.00000356,   0.00000178,   0.00000003
  1.27508330,   1.00001360,   0.00000141,  -0.00004254,   0.00000010,  -0.00000055,  -0.00000000,   0.00025934,  -0.00011244,  -0.00002049,   0.00000357,   0.00000178,   0.00000003
  1.34166670,   1.00001260,   0.00000036,  -0.00004029,   0.00000010,  -0.00000048,  -0.00000001,   0.00025960,  -0.00011265,  -0.00002051,   0.00000357,   0.00000179,   0.00000003
  1.40825000,   1.00001300,  -0.00000159,  -0.00004455,   0.00000010,  -0.00000034,  -0.00000000,   0.00025985,  -0.00011285,  -0.00002052,   0.00000357,   0.00000179,   0.00000003
  1.47483330,   1.00001280,  -0.00000246,  -0.00005136,   0.00000009,  -0.00000031,  -0.00000000,   0.00026009,  -0.00011304,  -0.00002054,   0.00000358,   0.00000180,   0.00000003
  1.54141670,   1.00000980,  -0.00000174,  -0.00004011,   0.00000007,  -0.00000042,  -0.00000001,   0.00026032,  -0.00011323,  -0.00002055,   0.00000358,   0.00000180,   0.00000003
  1.60800000,   1.00000040,   0.00000352,   0.00005691,   0.00000005,   0.00000051,  -0.00000000,   0.00026054,  -0.00011342,  -0.00002055,   0.00000358,   0.00000180,   0.00000003
  1.67458330,   1.00000890,  -0.00000098,  -0.00004406,   0.00000006,  -0.00000066,  -0.00000000,   0.00026077,  -0.00011360,  -0.00002057,   0.00000359,   0.00000180,   0.00000003
  1.74116670,   1.00000920,  -0.00000257,  -0.00004194,   0.00000004,  -0.00000047,  -0.00000000,   0.00026098,  -0.00011378,  -0.00002057,   0.00000359,   0.00000181,   0.00000003
  1.80775000,   1.00000800,  -0.00000272,  -0.00003897,   0.00000003,  -0.00000044,  -0.00000000,   0.00026119,  -0.00011395,  -0.00002058,   0.00000359,   0.00000181,   0.00000003
  1.87433330,   1.00000110,   0.00000220,   0.00000962,   0.00000003,  -0.00000009,  -0.00000001,   0.00026139,  -0.00011412,  -0.00002058,   0.00000359,   0.00000181,   0.00000003
  1.94091670,   1.00000720,  -0.00000211,  -0.00004434,   0.00000002,  -0.00000062,  -0.00000000,   0.00026159,  -0.00011429,  -0.00002059,   0.00000360,   0.00000181,   0.00000003
  2.00750000,   1.00000910,  -0.00000387,  -0.00005795,   0.00000002,  -0.00000063,  -0.00000001,   0.00026179,  -0.00011446,  -0.00002060,   0.00000360,   0.00000181,   0.00000003
  2.07408330,   1.00000730,  -0.00000345,  -0.00004113,   0.00000002,  -0.00000045,  -0.00000000,   0.00026198,  -0.00011462,  -0.00002060,   0.00000360,   0.00000182,   0.00000003
  2.14066670,   1.00000680,  -0.00000317,  -0.00004789,   0.00000001,  -0.00000060,  -0.00000000,   0.00026216,  -0.00011478,  -0.00002060,   0.00000360,   0.00000182,   0.00000003
  2.20725000,   0.99999966,  -0.00000083,   0.00005096,   0.00000001,   0.00000071,  -0.00000001,   0.00026234,  -0.00011494,  -0.00002060,   0.00000360,   0.00000182,   0.00000003
  2.27383330,   1.00000610,  -0.00000298,  -0.00003468,   0.00000001,  -0.00000045,  -0.00000000,   0.00026252,  -0.00011509,  -0.00002061,   0.00000361,   0.00000182,   0.00000003
  2.34041670,   1.00000850,  -0.00000369,  -0.00006821,   0.00000001,  -0.00000085,  -0.00000000,   0.00026270,  -0.00011525,  -0.00002061,   0.00000361,   0.00000182,   0.00000003
  2.40700000,   1.00000680,  -0.00000359,  -0.00004221,   0.00000001,  -0.00000050,  -0.00000000,   0.00026287,  -0.00011540,  -0.00002062,   0.00000361,   0.00000182,   0.00000003
  2.47358330,   1.00000650,  -0.00000344,  -0.00004533,   0.00000001,  -0.00000056,  -0.00000000,   0.00026304,  -0.00011554,  -0.00002062,   0.00000361,   0.00000182,   0.00000003
  2.54016670,   1.00000160,  -0.00000051,  -0.00000127,   0.00000000,  -0.00000001,  -0.00000000,   0.00026321,  -0.00011569,  -0.00002062,   0.00000361,   0.00000183,   0.00000003
  2.60675000,   1.00000580,  -0.00000318,  -0.00003242,   0.00000001,  -0.00000041,  -0.00000000,   0.00026337,  -0.00011583,  -0.00002062,   0.00000362,   0.00000183,   0.00000003
  2.67333330,   1.00000780,  -0.00000388,  -0.00006049,   0.00000001,  -0.00000077,  -0.00000000,   0.00026353,  -0.00011597,  -0.00002063,   0.00000362,   0.00000183,   0.00000003
  2.73991670,   1.00000730,  -0.00000414,  -0.00004853,   0.00000001,  -0.00000057,  -0.00000000,   0.00026369,  -0.00011611,  -0.00002063,   0.00000362,   0.00000183,   0.00000003
  2.80650000,   1.00000620,  -0.00000329,  -0.00004872,  -0.00000000,  -0.00000062,  -0.00000000,   0.00026385,  -0.00011624,  -0.00002063,   0.00000362,   0.00000183,   0.00000003
  2.87308330,   1.00000240,  -0.00000143,  -0.00001008,  -0.00000000,  -0.00000008,  -0.00000001,   0.00026400,  -0.00011638,  -0.00002063,   0.00000362,   0.00000183,   0.00000003
  2.93966670,   1.00000590,  -0.00000322,  -0.00004553,  -0.00000001,  -0.00000058,  -0.00000000,   0.00026415,  -0.00011651,  -0.00002063,   0.00000363,   0.00000183,   0.00000003
  3.00625000,   1.00000610,  -0.00000387,  -0.00004210,  -0.00000001,  -0.00000052,  -0.00000000,   0.00026430,  -0.00011664,  -0.00002063,   0.00000363,   0.00000183,   0.00000003
  3.07283330,   1.00000340,   0.00000028,  -0.00006189,  -0.00000001,  -0.00000087,  -0.00000000,   0.00026445,  -0.00011676,  -0.00002064,   0.00000363,   0.00000183,   0.00000003
  3.13941670,   1.00000560,  -0.00000320,  -0.00004138,  -0.00000001,  -0.00000053,  -0.00000000,   0.00026459,  -0.00011689,  -0.00002064,   0.00000363,   0.00000184,   0.00000003
  3.20600000,   1.00000620,  -0.00000377,  -0.00004610,  -0.00000001,  -0.00000058,  -0.00000000,   0.00026473,  -0.00011701,  -0.00002064,   0.00000363,   0.00000184,   0.00000003
  3.27258330,   1.00000160,  -0.00000107,  -0.00000464,  -0.00000002,  -0.00000003,  -0.00000000,   0.00026487,  -0.00011713,  -0.00002064,   0.00000363,   0.00000184,   0.00000003
  3.33916670,   1.00000560,  -0.00000316,  -0.00004429,  -0.00000001,  -0.00000057,  -0.00000000,   0.00026501,  -0.00011725,  -0.00002064,   0.00000364,   0.00000184,   0.00000003
  3.40575000,   1.00000600,  -0.00000386,  -0.00004231,  -0.00000001,  -0.00000052,  -0.00000000,   0.00026515,  -0.00011737,  -0.00002064,   0.00000364,   0.00000184,   0.00000003
  3.47233330,   1.00000330,  -0.00000019,  -0.00005630,  -0.00000002,  -0.00000078,   0.00000000,   0.00026528,  -0.00011749,  -0.00002065,   0.00000364,   0.00000184,   0.00000003
  3.53891670,   1.00000550,  -0.00000327,  -0.00004162,  -0.00000001,  -0.00000053,  -0.00000000,   0.00026541,  -0.00011760,  -0.00002065,   0.00000364,   0.00000184,   0.00000003
  3.60550000,   1.00000600,  -0.00000376,  -0.00004694,  -0.00000001,  -0.00000059,  -0.00000000,   0.00026554,  -0.00011771,  -0.00002065,   0.00000364,   0.00000184,   0.00000003
  3.67208330,   1.00000160,  -0.00000162,   0.00000064,  -0.00000002,   0.00000005,  -0.00000000,   0.00026567,  -0.00011782,  -0.00002065,   0.00000364,   0.00000184,   0.00000003
  3.73866670,   1.00000500,  -0.00000346,  -0.00003003,  -0.00000001,  -0.00000037,   0.00000000,   0.00026580,  -0.00011793,  -0.00002065,   0.00000365,   0.00000184,   0.00000003
  3.80525000,   1.00000710,  -0.00000372,  -0.00006670,  -0.00000001,  -0.00000087,   0.00000000,   0.00026592,  -0.00011804,  -0.00002066,   0.00000365,   0.00000185,   0.00000003
  3.87183330,   1.00000640,  -0.00000415,  -0.00004724,  -0.00000001,  -0.00000057,   0.00000000,   0.00026604,  -0.00011815,  -0.00002066,   0.00000365,   0.00000185,   0.00000003
  3.93841670,   1.00000580,  -0.00000371,  -0.00004638,  -0.00000002,  -0.00000058,  -0.00000000,   0.00026616,  -0.00011825,  -0.00002066,   0.00000365,   0.00000185,   0.00000003
  4.00500000,   1.00000320,  -0.00000170,  -0.00003215,  -0.00000002,  -0.00000039,   0.00000001,   0.00026628,  -0.00011835,  -0.00002066,   0.00000365,   0.00000185,   0.00000003
  4.07158330,   1.00000550,  -0.00000343,  -0.00004484,  -0.00000002,  -0.00000057,  -0.00000000,   0.00026640,  -0.00011845,  -0.00002066,   0.00000365,   0.00000185,   0.00000003
  4.13816670,   1.00000550,  -0.00000378,  -0.00004270,  -0.00000002,  -0.00000053,  -0.00000000,   0.00026651,  -0.00011855,  -0.00002067,   0.00000365,   0.00000185,   0.00000003
  4.20475000,   1.00000370,  -0.00000104,  -0.00005729,  -0.00000002,  -0.00000077,  -0.00000000,   0.00026663,  -0.00011865,  -0.00002067,   0.00000366,   0.00000185,   0.00000003
  4.27133330,   1.00000530,  -0.00000348,  -0.00004255,  -0.00000002,  -0.00000054,  -0.00000000,   0.00026674,  -0.00011875,  -0.00002067,   0.00000366,   0.00000185,   0.00000003
  4.33791670,   1.00000520,   0.00000103,  -0.00011920,  -0.00000001,  -0.00000168,   0.00000000,   0.00026685,  -0.00011884,  -0.00002068,   0.00000366,   0.00000185,   0.00000003
  4.40450000,   1.00000580,  -0.00000299,  -0.00005676,  -0.00000002,  -0.00000076,  -0.00000000,   0.00026696,  -0.00011893,  -0.00002067,   0.00000366,   0.00000185,   0.00000003
  4.47108330,   1.00000590,  -0.00000377,  -0.00004750,  -0.00000001,  -0.00000060,  -0.00000000,   0.00026707,  -0.00011903,  -0.00002068,   0.00000366,   0.00000185,   0.00000003
  4.53766670,   1.00000570,  -0.00000374,  -0.00004695,  -0.00000002,  -0.00000059,  -0.00000000,   0.00026717,  -0.00011912,  -0.00002068,   0.00000366,   0.00000185,   0.00000003
  4.60425000,   1.00000310,  -0.00000205,  -0.00002889,  -0.00000002,  -0.00000035,  -0.00000000,   0.00026728,  -0.00011921,  -0.00002068,   0.00000367,   0.00000186,   0.00000003
  4.67083330,   1.00000530,  -0.00000352,  -0.00004501,  -0.00000002,  -0.00000057,  -0.00000000,   0.00026738,  -0.00011929,  -0.00002068,   0.00000367,   0.00000186,   0.00000003
  4.73741670,   1.00000010,  -0.00000284,   0.00004327,  -0.00000002,   0.00000069,  -0.00000000,   0.00026748,  -0.00011938,  -0.00002068,   0.00000367,   0.00000186,   0.00000003
  4.80400000,   1.00000420,  -0.00000398,  -0.00001343,  -0.00000002,  -0.00000012,  -0.00000001,   0.00026758,  -0.00011947,  -0.00002068,   0.00000367,   0.00000186,   0.00000003
  4.87058330,   1.00000690,  -0.00000361,  -0.00007243,  -0.00000001,  -0.00000096,  -0.00000000,   0.00026768,  -0.00011955,  -0.00002069,   0.00000367,   0.00000186,   0.00000003
  4.93716670,   1.00000630,  -0.00000399,  -0.00005565,  -0.00000001,  -0.00000071,  -0.00000000,   0.00026778,  -0.00011963,  -0.00002069,   0.00000367,   0.00000186,   0.00000003
  5.00375000,   1.00000550,  -0.00000378,  -0.00004724,  -0.00000001,  -0.00000059,  -0.00000000,   0.00026787,  -0.00011971,  -0.00002069,   0.00000367,   0.00000186,   0.00000003
  5.07033330,   1.00000450,  -0.00000172,  -0.00006498,  -0.00000001,  -0.00000086,  -0.00000000,   0.00026797,  -0.00011979,  -0.00002070,   0.00000368,   0.00000186,   0.00000003
  5.13691670,   1.00000490,  -0.00000382,  -0.00003477,  -0.00000001,  -0.00000042,  -0.00000000,   0.00026806,  -0.00011987,  -0.00002070,   0.00000368,   0.00000186,   0.00000003
  5.20350000,   1.00000550,  -0.00000393,  -0.00004557,  -0.00000001,  -0.00000057,  -0.00000000,   0.00026815,  -0.00011995,  -0.00002070,   0.00000368,   0.00000186,   0.00000003
  5.27008330,   1.00000140,  -0.00000326,   0.00002008,  -0.00000002,   0.00000035,  -0.00000001,   0.00026824,  -0.00012003,  -0.00002070,   0.00000368,   0.00000186,   0.00000003
  5.33666670,   1.00000520,  -0.00000355,  -0.00004515,  -0.00000001,  -0.00000057,  -0.00000000,   0.00026833,  -0.00012010,  -0.00002070,   0.00000368,   0.00000186,   0.00000003
  5.40325000,   1.00000590,  -0.00000410,  -0.00004846,  -0.00000001,  -0.00000061,  -0.00000000,   0.00026842,  -0.00012018,  -0.00002071,   0.00000368,   0.00000187,   0.00000003
  5.46983330,   1.00000530,  -0.00000397,  -0.00004112,  -0.00000001,  -0.00000050,  -0.00000000,   0.00026851,  -0.00012025,  -0.00002071,   0.00000369,   0.00000187,   0.00000003
  5.53641670,   1.00000560,  -0.00000131,  -0.00009154,  -0.00000001,  -0.00000126,  -0.00000000,   0.00026860,  -0.00012032,  -0.00002071,   0.00000369,   0.00000187,   0.00000003
  5.60300000,   1.00000500,  -0.00000370,  -0.00004019,  -0.00000001,  -0.00000050,  -0.00000000,   0.00026868,  -0.00012040,  -0.00002071,   0.00000369,   0.00000187,   0.00000003
  5.66958330,   1.00000540,  -0.00000393,  -0.00004554,  -0.00000001,  -0.00000057,  -0.00000000,   0.00026876,  -0.00012047,  -0.00002071,   0.00000369,   0.00000187,   0.00000003
  5.73616670,   1.00000240,  -0.00000273,  -0.00000772,   0.00000000,  -0.00000004,  -0.00000000,   0.00026884,  -0.00012054,  -0.00002071,   0.00000369,   0.00000187,   0.00000003
  5.80275000,   1.00000520,  -0.00000353,  -0.00004723,  -0.00000000,  -0.00000060,  -0.00000000,   0.00026893,  -0.00012060,  -0.00002072,   0.00000369,   0.00000187,   0.00000003
  5.86933330,   1.00000600,  -0.00000401,  -0.00005455,  -0.00000000,  -0.00000070,  -0.00000001,   0.00026901,  -0.00012067,  -0.00002072,   0.00000369,   0.00000187,   0.00000003
  5.93591670,   1.00000520,  -0.00000398,  -0.00004211,  -0.00000000,  -0.00000052,  -0.00000000,   0.00026909,  -0.00012074,  -0.00002072,   0.00000369,   0.00000187,   0.00000003
  6.00250000,   1.00000620,  -0.00000114,  -0.00011104,  -0.00000000,  -0.00000154,  -0.00000000,   0.00026917,  -0.00012080,  -0.00002073,   0.00000370,   0.00000187,   0.00000003
  6.06908330,   1.00000510,  -0.00000371,  -0.00004301,  -0.00000000,  -0.00000054,  -0.00000000,   0.00026924,  -0.00012087,  -0.00002073,   0.00000370,   0.00000187,   0.00000003
  6.13566670,   1.00000530,  -0.00000398,  -0.00004422,  -0.00000000,  -0.00000055,  -0.00000000,   0.00026932,  -0.00012093,  -0.00002073,   0.00000370,   0.00000187,   0.00000003
  6.20225000,   1.00000340,  -0.00000250,  -0.00003433,  -0.00000000,  -0.00000043,  -0.00000001,   0.00026939,  -0.00012099,  -0.00002073,   0.00000370,   0.00000187,   0.00000003
  6.26883330,   1.00000510,  -0.00000360,  -0.00004688,  -0.00000000,  -0.00000059,  -0.00000000,   0.00026947,  -0.00012106,  -0.00002073,   0.00000370,   0.00000187,   0.00000003
  6.33541670,   1.00000080,  -0.00000353,   0.00003476,   0.00000000,   0.00000058,  -0.00000001,   0.00026954,  -0.00012112,  -0.00002073,   0.00000370,   0.00000188,   0.00000003
  6.40200000,   1.00000390,  -0.00000436,  -0.00000929,  -0.00000001,  -0.00000005,  -0.00000001,   0.00026961,  -0.00012118,  -0.00002074,   0.00000370,   0.00000188,   0.00000003
  6.46858330,   1.00000680,  -0.00000336,  -0.00008321,  -0.00000000,  -0.00000111,  -0.00000001,   0.00026969,  -0.00012124,  -0.00002074,   0.00000370,   0.00000188,   0.00000003
  6.53516670,   1.00000590,  -0.00000392,  -0.00005791,  -0.00000000,  -0.00000074,  -0.00000001,   0.00026976,  -0.00012130,  -0.00002074,   0.00000370,   0.00000188,   0.00000003
  6.60175000,   1.00000530,  -0.00000384,  -0.00004810,  -0.00000000,  -0.00000060,  -0.00000001,   0.00026983,  -0.00012135,  -0.00002075,   0.00000370,   0.00000188,   0.00000003
  6.66833330,   1.00000510,  -0.00000386,  -0.00004723,  -0.00000000,  -0.00000059,  -0.00000000,   0.00026989,  -0.00012141,  -0.00002075,   0.00000371,   0.00000188,   0.00000003
  6.73491670,   1.00000350,  -0.00000306,  -0.00003041,  -0.00000000,  -0.00000036,  -0.00000001,   0.00026996,  -0.00012147,  -0.00002075,   0.00000371,   0.00000188,   0.00000003
  6.80150000,   1.00000500,  -0.00000379,  -0.00004455,  -0.00000000,  -0.00000056,  -0.00000000,   0.00027003,  -0.00012152,  -0.00002075,   0.00000371,   0.00000188,   0.00000003
  6.86808330,   1.00000120,  -0.00000384,   0.00002965,  -0.00000001,   0.00000051,  -0.00000001,   0.00027009,  -0.00012158,  -0.00002075,   0.00000371,   0.00000188,   0.00000003
  6.93466670,   1.00000430,  -0.00000410,  -0.00002214,  -0.00000001,  -0.00000024,  -0.00000001,   0.00027016,  -0.00012163,  -0.00002076,   0.00000371,   0.00000188,   0.00000003
  7.00125000,   1.00000620,  -0.00000368,  -0.00006681,  -0.00000000,  -0.00000088,  -0.00000001,   0.00027023,  -0.00012168,  -0.00002076,   0.00000371,   0.00000188,   0.00000003
  7.06783330,   1.00000540,  -0.00000411,  -0.00004610,  -0.00000000,  -0.00000057,  -0.00000001,   0.00027029,  -0.00012173,  -0.00002076,   0.00000371,   0.00000188,   0.00000003
  7.13441670,   1.00000700,  -0.00000075,  -0.00013364,  -0.00000000,  -0.00000187,  -0.00000000,   0.00027035,  -0.00012178,  -0.00002077,   0.00000371,   0.00000188,   0.00000003
  7.20100000,   1.00000490,  -0.00000372,  -0.00004146,  -0.00000000,  -0.00000052,  -0.00000000,   0.00027041,  -0.00012184,  -0.00002077,   0.00000371,   0.00000188,   0.00000003
  7.26758330,   1.00000500,  -0.00000434,  -0.00003369,  -0.00000000,  -0.00000039,  -0.00000001,   0.00027048,  -0.00012189,  -0.00002077,   0.00000371,   0.00000189,   0.00000003
  7.33416670,   1.00000520,  -0.00000392,  -0.00004635,  -0.00000001,  -0.00000058,  -0.00000000,   0.00027054,  -0.00012194,  -0.00002077,   0.00000371,   0.00000189,   0.00000003
  7.40075000,   1.00000490,  -0.00000398,  -0.00004272,  -0.00000001,  -0.00000053,  -0.00000000,   0.00027060,  -0.00012198,  -0.00002078,   0.00000371,   0.00000189,   0.00000003
  7.46733330,   1.00000480,  -0.00000251,  -0.00006637,  -0.00000001,  -0.00000088,  -0.00000001,   0.00027066,  -0.00012203,  -0.00002078,   0.00000371,   0.00000189,   0.00000003
  7.53391670,   1.00000520,  -0.00000368,  -0.00005184,  -0.00000001,  -0.00000066,  -0.00000001,   0.00027071,  -0.00012208,  -0.00002078,   0.00000372,   0.00000189,   0.00000003
  7.60050000,   1.00000510,  -0.00000394,  -0.00004614,  -0.00000001,  -0.00000058,  -0.00000000,   0.00027077,  -0.00012213,  -0.00002078,   0.00000372,   0.00000189,   0.00000003
  7.66708330,   1.00000460,  -0.00000261,  -0.00005905,  -0.00000002,  -0.00000078,  -0.00000001,   0.00027083,  -0.00012217,  -0.00002079,   0.00000372,   0.00000189,   0.00000003
  7.73366670,   1.00000470,  -0.00000388,  -0.00003847,  -0.00000001,  -0.00000047,  -0.00000000,   0.00027088,  -0.00012222,  -0.00002079,   0.00000372,   0.00000189,   0.00000003
  7.80025000,   1.00000510,  -0.00000396,  -0.00004483,  -0.00000001,  -0.00000056,  -0.00000000,   0.00027094,  -0.00012226,  -0.00002079,   0.00000372,   0.00000189,   0.00000003
  7.86683330,   1.00000280,  -0.00000365,  -0.00000611,  -0.00000001,  -0.00000001,  -0.00000000,   0.00027099,  -0.00012231,  -0.00002079,   0.00000372,   0.00000189,   0.00000003
  7.93341670,   1.00000490,  -0.00000376,  -0.00004447,  -0.00000001,  -0.00000056,  -0.00000000,   0.00027105,  -0.00012235,  -0.00002079,   0.00000372,   0.00000189,   0.00000003
  8.00000000,   1.00000530,  -0.00000402,  -0.00004706,  -0.00000001,  -0.00000059,  -0.00000000,   0.00027110,  -0.00012239,  -0.00002080,   0.00000372,   0.00000189,   0.00000003
  8.00025000,   0.97501515,  -0.00000401,  -0.00004066,   0.00000017,  -0.00000043,   0.00000000,   0.00026578,  -0.00012039,  -0.00002038,   0.00000365,   0.00000186,   0.00000002
  8.00050000,   0.95001035,  -0.00000010,  -0.00002405,   0.00000016,  -0.00000030,  -0.00000002,   0.00025993,  -0.00011805,  -0.00001994,   0.00000357,   0.00000183,   0.00000002
  8.00075000,   0.92501408,   0.00000610,  -0.00006064,   0.00000020,  -0.00000082,  -0.00000002,   0.00025397,  -0.00011561,  -0.00001949,   0.00000349,   0.00000179,   0.00000002
  8.00100000,   0.90002005,  -0.00000461,  -0.00004408,   0.00000017,  -0.00000052,  -0.00000004,   0.00024794,  -0.00011312,  -0.00001905,   0.00000340,   0.00000176,   0.00000002
  8.00125000,   0.87501571,  -0.00000034,  -0.00004088,   0.00000014,  -0.00000062,   0.00000003,   0.00024187,  -0.00011059,  -0.00001860,   0.00000332,   0.00000173,   0.00000002
  8.00150000,   0.85001312,  -0.00000183,  -0.00001310,   0.00000011,  -0.00000021,  -0.00000002,   0.00023577,  -0.00010803,  -0.00001815,   0.00000324,   0.00000169,   0.00000002
  8.00175000,   0.82501266,  -0.00000244,  -0.00004983,   0.00000008,  -0.00000069,   0.00000002,   0.00022966,  -0.00010546,  -0.00001770,   0.00000315,   0.00000166,   0.00000002
  8.00200000,   0.80000944,  -0.00000389,  -0.00004310,   0.00000004,  -0.00000057,  -0.00000001,   0.00022353,  -0.00010288,  -0.00001725,   0.00000307,   0.00000162,   0.00000002
  8.00225000,   0.77500704,  -0.00000419,  -0.00005774,   0.00000001,  -0.00000075,   0.00000001,   0.00021740,  -0.00010029,  -0.00001680,   0.00000299,   0.00000159,   0.00000002
  8.00250000,   0.75000453,  -0.00000530,  -0.00004535,  -0.00000002,  -0.00000056,  -0.00000001,   0.00021127,  -0.00009770,  -0.00001635,   0.00000290,   0.00000155,   0.00000002
  8.00275000,   0.72499847,   0.00000581,  -0.00012370,  -0.00000003,  -0.00000169,   0.00000003,   0.00020513,  -0.00009510,  -0.00001590,   0.00000282,   0.00000152,   0.00000002
  8.00300000,   0.70000053,  -0.00000373,  -0.00004208,  -0.00000004,  -0.00000051,   0.00000001,   0.00019899,  -0.00009250,  -0.00001545,   0.00000274,   0.00000149,   0.00000002
  8.00325000,   0.67500469,  -0.00000794,  -0.00004605,  -0.00000004,  -0.00000054,  -0.00000001,   0.00019285,  -0.00008991,  -0.00001500,   0.00000265,   0.00000145,   0.00000001
  8.00350000,   0.65000275,  -0.00000470,  -0.00004218,  -0.00000002,  -0.00000051,  -0.00000000,   0.00018671,  -0.00008731,  -0.00001455,   0.00000257,   0.00000142,   0.00000001
  8.00375000,   0.62500302,  -0.00000425,  -0.00003971,  -0.00000001,  -0.00000048,  -0.00000000,   0.00018057,  -0.00008470,  -0.00001410,   0.00000248,   0.00000138,   0.00000001
  8.00400000,   0.60000299,  -0.00000413,  -0.00004024,   0.00000000,  -0.00000049,  -0.00000000,   0.00017443,  -0.00008210,  -0.00001365,   0.00000240,   0.00000135,   0.00000001
  8.00425000,   0.57500300,  -0.00000407,  -0.00004174,   0.00000000,  -0.00000052,  -0.00000000,   0.00016828,  -0.00007950,  -0.00001320,   0.00000232,   0.00000131,   0.00000001
  8.00450000,   0.55000328,  -0.00000389,  -0.00005205,   0.00000000,  -0.00000066,  -0.00000000,   0.00016214,  -0.00007690,  -0.00001275,   0.00000223,   0.00000128,   0.00000001
  8.00475000,   0.52500292,  -0.00000396,  -0.00004881,  -0.00000000,  -0.00000061,  -0.00000000,   0.00015600,  -0.00007429,  -0.00001230,   0.00000215,   0.00000124,   0.00000001
  8.00500000,   0.50000251,  -0.00000406,  -0.00004453,  -0.00000001,  -0.00000055,  -0.00000000,   0.00014985,  -0.00007169,  -0.00001185,   0.00000206,   0.00000121,   0.00000001
  8.00525000,   0.47500252,  -0.00000402,  -0.00004695,  -0.00000001,  -0.00000059,  -0.00000000,   0.00014370,  -0.00006908,  -0.00001140,   0.00000198,   0.00000118,   0.00000001
  8.00550000,   0.45000239,  -0.00000401,  -0.00004762,  -0.00000001,  -0.00000059,  -0.00000000,   0.00013756,  -0.00006648,  -0.00001095,   0.00000189,   0.00000114,   0.00000001
  8.00575000,   0.42500224,  -0.00000403,  -0.00004634,  -0.00000001,  -0.00000058,  -0.00000000,   0.00013141,  -0.00006387,  -0.00001050,   0.00000181,   0.00000111,   0.00000001
  8.00600000,   0.40000236,  -0.00000401,  -0.00004866,  -0.00000001,  -0.00000061,  -0.00000000,   0.00012526,  -0.00006126,  -0.00001005,   0.00000173,   0.00000107,   0.00000001
  8.00625000,   0.37500197,  -0.00000447,  -0.00004973,  -0.00000002,  -0.00000061,   0.00000000,   0.00011911,  -0.00005866,  -0.00000960,   0.00000164,   0.00000104,   0.00000001
  8.00650000,   0.35000153,  -0.00000461,  -0.00004528,  -0.00000002,  -0.00000055,  -0.00000000,   0.00011296,  -0.00005605,  -0.00000915,   0.00000156,   0.00000100,   0.00000000
  8.00675000,   0.32500160,  -0.00000409,  -0.00004461,  -0.00000002,  -0.00000055,  -0.00000000,   0.00010682,  -0.00005344,  -0.00000870,   0.00000147,   0.00000097,   0.00000000
  8.00700000,   0.30000109,  -0.00000438,  -0.00004966,  -0.00000002,  -0.00000062,  -0.00000000,   0.00010067,  -0.00005083,  -0.00000825,   0.00000139,   0.00000093,   0.00000000
  8.00725000,   0.27500116,  -0.00000499,  -0.00004760,  -0.00000002,  -0.00000058,  -0.00000000,   0.00009452,  -0.00004822,  -0.00000780,   0.00000131,   0.00000090,   0.00000000
  8.00750000,   0.25000121,  -0.00000408,  -0.00004353,  -0.00000001,  -0.00000054,  -0.00000000,   0.00008836,  -0.00004561,  -0.00000735,   0.00000122,   0.00000087,   0.00000000
  8.00775000,   0.22500192,  -0.00000414,  -0.00004250,  -0.00000001,  -0.00000053,  -0.00000000,   0.00008221,  -0.00004300,  -0.00000690,   0.00000114,   0.00000083,  -0.00000000
  8.00800000,   0.20000083,  -0.00000418,  -0.00004190,  -0.00000001,  -0.00000051,  -0.00000000,   0.00007606,  -0.00004039,  -0.00000645,   0.00000105,   0.00000080,  -0.00000000
  8.00825000,   0.17500098,  -0.00000399,  -0.00004820,  -0.00000001,  -0.00000060,  -0.00000000,   0.00006991,  -0.00003778,  -0.00000600,   0.00000097,   0.00000076,  -0.00000000
  8.00850000,   0.15000073,  -0.00000404,  -0.00004596,  -0.00000001,  -0.00000057,  -0.00000000,   0.00006376,  -0.00003517,  -0.00000555,   0.00000089,   0.00000073,  -0.00000000
  8.00875000,   0.12500070,  -0.00000400,  -0.00004783,  -0.00000001,  -0.00000060,  -0.00000000,   0.00005760,  -0.00003256,  -0.00000510,   0.00000080,   0.00000069,  -0.00000000
  8.00900000,   0.10000052,  -0.00000403,  -0.00004682,  -0.00000001,  -0.00000058,  -0.00000000,   0.00005145,  -0.00002994,  -0.00000465,   0.00000072,   0.00000066,  -0.00000000
  8.00925000,   0.07500042,  -0.00000401,  -0.00004749,  -0.00000001,  -0.00000059,  -0.00000000,   0.00004530,  -0.00002733,  -0.00000420,   0.00000063,   0.00000062,  -0.00000001
  8.00950000,   0.05000026,  -0.00000403,  -0.00004699,  -0.00000001,  -0.00000059,  -0.00000000,   0.00003914,  -0.00002472,  -0.00000375,   0.00000055,   0.00000059,  -0.00000001
  8.00975000,   0.02500013,  -0.00000402,  -0.00004709,  -0.00000001,  -0.00000059,  -0.00000000,   0.00003299,  -0.00002210,  -0.00000330,   0.00000047,   0.00000055,  -0.00000001
  8.01000000,   0.00000000,  -0.00000402,  -0.00004706,  -0.00000001,  -0.00000059,  -0.00000000,   0.00002683,  -0.00001949,  -0.00000285,   0.00000038,   0.00000052,  -0.00000001
  8.14316670,  -0.00000000,  -0.00000402,  -0.00004698,  -0.00000001,  -0.00000059,  -0.00000000,   0.00002105,  -0.00001535,  -0.00000213,   0.00000030,   0.00000041,  -0.00000001
  8.27633330,  -0.00000000,  -0.00000402,  -0.00004699,  -0.00000001,  -0.00000059,  -0.00000000,   0.00001908,  -0.00001437,  -0.00000163,   0.00000027,   0.00000033,  -0.00000000
  8.40950000,   0.00000000,  -0.00000402,  -0.00004708,  -0.00000001,  -0.00000059,  -0.00000000,   0.00001764,  -0.00001366,  -0.00000127,   0.00000025,   0.00000028,  -0.00000000
  8.54266670,  -0.00000000,  -0.00000402,  -0.00004705,  -0.00000001,  -0.00000059,  -0.00000000,   0.00001650,  -0.00001308,  -0.00000100,   0.00000023,   0.00000023,  -0.00000000
  8.67583330,   0.00000000,  -0.00000402,  -0.00004706,  -0.00000001,  -0.00000059,  -0.00000000,   0.00001557,  -0.00001256,  -0.00000080,   0.00000021,   0.00000020,  -0.00000000
  8.80900000,  -0.00000000,  -0.00000402,  -0.00004703,  -0.00000001,  -0.00000059,  -0.00000000,   0.00001479,  -0.00001209,  -0.00000065,   0.00000020,   0.00000017,  -0.00000000
  8.94216670,  -0.00000000,  -0.00000402,  -0.00004704,  -0.00000001,  -0.00000059,  -0.00000000,   0.00001412,  -0.00001166,  -0.00000054,   0.00000019,   0.00000015,  -0.00000000
  9.07533330,   0.00000000,  -0.00000402,  -0.00004706,  -0.00000001,  -0.00000059,  -0.00000000,   0.00001355,  -0.00001127,  -0.00000047,   0.00000018,   0.00000014,  -0.00000000
  9.20850000,  -0.00000000,  -0.00000402,  -0.00004706,  -0.00000001,  -0.00000059,  -0.00000000,   0.00001304,  -0.00001090,  -0.00000041,   0.00000018,   0.00000013,  -0.00000000
  9.34166670,  -0.00000000,  -0.00000402,  -0.00004705,  -0.00000001,  -0.00000059,  -0.00000000,   0.00001258,  -0.00001055,  -0.00000037,   0.00000017,   0.00000012,  -0.00000000
  9.47483330,  -0.00000000,  -0.00000402,  -0.00004693,  -0.00000001,  -0.00000059,  -0.00000000,   0.00001216,  -0.00001023,  -0.00000034,   0.00000016,   0.00000011,  -0.00000000
  9.60800000,   0.00000000,  -0.00000402,  -0.00004706,  -0.00000001,  -0.00000059,  -0.00000000,   0.00001177,  -0.00000991,  -0.00000032,   0.00000016,   0.00000011,  -0.00000000
  9.74116670,   0.00000000,  -0.00000402,  -0.00004706,  -0.00000001,  -0.00000059,  -0.00000000,   0.00001141,  -0.00000961,  -0.00000031,   0.00000015,   0.00000010,  -0.00000000
  9.87433330,   0.00000000,  -0.00000402,  -0.00004707,  -0.00000001,  -0.00000059,  -0.00000000,   0.00001107,  -0.00000933,  -0.00000030,   0.00000015,   0.00000010,  -0.00000000
 10.00750000,  -0.00000001,  -0.00000403,  -0.00004710,  -0.00000001,  -0.00000059,  -0.00000000,   0.00001076,  -0.00000905,  -0.00000029,   0.00000014,   0.00000010,  -0.00000000
 10.14066700,  -0.00000000,  -0.00000402,  -0.00004694,  -0.00000001,  -0.00000059,  -0.00000000,   0.00001045,  -0.00000879,  -0.00000028,   0.00000014,   0.00000009,  -0.00000000
 10.27383300,  -0.00000000,  -0.00000402,  -0.00004709,  -0.00000001,  -0.00000059,  -0.00000000,   0.00001016,  -0.00000853,  -0.00000028,   0.00000014,   0.00000009,  -0.00000000
 10.40700000,  -0.00000000,  -0.00000403,  -0.00004696,  -0.00000001,  -0.00000059,  -0.00000000,   0.00000989,  -0.00000829,  -0.00000028,   0.00000013,   0.00000009,  -0.00000000
 10.54016700,   0.00000000,  -0.00000402,  -0.00004707,  -0.00000001,  -0.00000059,  -0.00000000,   0.00000962,  -0.00000805,  -0.00000028,   0.00000013,   0.00000009,  -0.00000000
 10.67333300,   0.00000000,  -0.00000402,  -0.00004705,  -0.00000001,  -0.00000059,  -0.00000000,   0.00000937,  -0.00000782,  -0.00000028,   0.00000013,   0.00000009,  -0.00000000
 10.80650000,   0.00000000,  -0.00000402,  -0.00004703,  -0.00000001,  -0.00000059,  -0.00000000,   0.00000912,  -0.00000760,  -0.00000028,   0.00000012,   0.00000009,  -0.00000000
 10.93966700,  -0.00000000,  -0.00000402,  -0.00004709,  -0.00000001,  -0.00000059,  -0.00000000,   0.00000889,  -0.00000739,  -0.00000028,   0.00000012,   0.00000008,  -0.00000000
 11.07283300,  -0.00000000,  -0.00000402,  -0.00004706,  -0.00000001,  -0.00000059,  -0.00000000,   0.00000866,  -0.00000718,  -0.00000028,   0.00000012,   0.00000008,  -0.00000000
 11.20600000,  -0.00000000,  -0.00000402,  -0.00004708,  -0.00000001,  -0.00000059,  -0.00000000,   0.00000844,  -0.00000699,  -0.00000028,   0.00000011,   0.00000008,  -0.00000000
 11.33916700,  -0.00000000,  -0.00000402,  -0.00004704,  -0.00000001,  -0.00000059,  -0.00000000,   0.00000823,  -0.00000679,  -0.00000029,   0.00000011,   0.00000008,  -0.00000000
 11.47233300,   0.00000000,  -0.00000402,  -0.00004707,  -0.00000001,  -0.00000059,  -0.00000000,   0.00000803,  -0.00000661,  -0.00000029,   0.00000011,   0.00000008,  -0.00000000
 11.60550000,   0.00000000,  -0.00000402,  -0.00004707,  -0.00000001,  -0.00000059,  -0.00000000,   0.00000783,  -0.00000643,  -0.00000029,   0.00000011,   0.00000008,  -0.00000000
 11.73866700,   0.00000000,  -0.00000402,  -0.00004706,  -0.00000001,  -0.00000059,  -0.00000000,   0.00000764,  -0.00000625,  -0.00000029,   0.00000010,   0.00000008,  -0.00000000
 11.87183300,  -0.00000000,  -0.00000402,  -0.00004706,  -0.00000001,  -0.00000059,  -0.00000000,   0.00000745,  -0.00000609,  -0.00000029,   0.00000010,   0.00000008,  -0.00000000
 12.00500000,   0.00000000,  -0.00000402,  -0.00004706,  -0.00000001,  -0.00000059,  -0.00000000,   0.00000727,  -0.00000592,  -0.00000029,   0.00000010,   0.00000008,  -0.00000000
 12.13816700,   0.00000000,  -0.00000402,  -0.00004705,  -0.00000001,  -0.00000059,  -0.00000000,   0.00000710,  -0.00000577,  -0.00000029,   0.00000010,   0.00000008,  -0.00000000
 12.27133300,  -0.00000000,  -0.00000402,  -0.00004709,  -0.00000001,  -0.00000059,  -0.00000000,   0.00000693,  -0.00000562,  -0.00000030,   0.00000009,   0.00000008,  -0.00000000
 12.40450000,  -0.00000000,  -0.00000402,  -0.00004706,  -0.00000001,  -0.00000059,  -0.00000000,   0.00000677,  -0.00000547,  -0.00000030,   0.00000009,   0.00000008,  -0.00000000
 12.53766700,  -0.00000000,  -0.00000402,  -0.00004708,  -0.00000001,  -0.00000059,  -0.00000000,   0.00000662,  -0.00000533,  -0.00000030,   0.00000009,   0.00000007,  -0.00000000
 12.67083300,  -0.00000000,  -0.00000402,  -0.00004706,  -0.00000001,  -0.00000059,  -0.00000000,   0.00000647,  -0.00000519,  -0.00000030,   0.00000009,   0.00000007,  -0.00000000
 12.80400000,  -0.00000000,  -0.00000402,  -0.00004707,  -0.00000001,  -0.00000059,  -0.00000000,   0.00000632,  -0.00000506,  -0.00000030,   0.00000009,   0.00000007,  -0.00000000
 12.93716700,   0.00000000,  -0.00000402,  -0.00004707,  -0.00000001,  -0.00000059,  -0.00000000,   0.00000618,  -0.00000493,  -0.00000030,   0.00000008,   0.00000007,  -0.00000000
 13.07033300,  -0.00000000,  -0.00000402,  -0.00004706,  -0.00000001,  -0.00000059,  -0.00000000,   0.00000604,  -0.00000480,  -0.00000030,   0.00000008,   0.00000007,  -0.00000000
 13.20350000,  -0.00000000,  -0.00000402,  -0.00004705,  -0.00000001,  -0.00000059,  -0.00000000,   0.00000591,  -0.00000468,  -0.00000030,   0.00000008,   0.00000007,  -0.00000000
 13.33666700,   0.00000000,  -0.00000402,  -0.00004706,  -0.00000001,  -0.00000059,  -0.00000000,   0.00000578,  -0.00000457,  -0.00000030,   0.00000008,   0.00000007,  -0.00000000
 13.46983300,   0.00000000,  -0.00000402,  -0.00004706,  -0.00000001,  -0.00000059,  -0.00000000,   0.00000566,  -0.00000446,  -0.00000030,   0.00000008,   0.00000007,  -0.00000000
 13.60300000,   0.00000000,  -0.00000402,  -0.00004706,  -0.00000001,  -0.00000059,  -0.00000000,   0.00000554,  -0.00000435,  -0.00000031,   0.00000008,   0.00000007,  -0.00000000
 13.73616700,   0.00000000,  -0.00000402,  -0.00004706,  -0.00000001,  -0.00000059,  -0.00000000,   0.00000542,  -0.00000424,  -0.00000031,   0.00000007,   0.00000007,  -0.00000000
 13.86933300,   0.00000000,  -0.00000402,  -0.00004706,  -0.00000001,  -0.00000059,  -0.00000000,   0.00000531,  -0.00000414,  -0.00000031,   0.00000007,   0.00000007,  -0.00000000
 14.00250000,   0.00000000,  -0.00000402,  -0.00004707,  -0.00000001,  -0.00000059,  -0.00000000,   0.00000520,  -0.00000404,  -0.00000031,   0.00000007,   0.00000007,  -0.00000000
 14.13566700,  -0.00000000,  -0.00000402,  -0.00004706,  -0.00000001,  -0.00000059,  -0.00000000,   0.00000510,  -0.00000395,  -0.00000031,   0.00000007,   0.00000007,  -0.00000000
 14.26883300,   0.00000000,  -0.00000402,  -0.00004707,  -0.00000001,  -0.00000059,  -0.00000000,   0.00000500,  -0.00000386,  -0.00000031,   0.00000007,   0.00000007,  -0.00000000
 14.40200000,  -0.00000000,  -0.00000402,  -0.00004706,  -0.00000001,  -0.00000059,  -0.00000000,   0.00000490,  -0.00000377,  -0.00000031,   0.00000007,   0.00000007,  -0.00000000
 14.53516700,  -0.00000000,  -0.00000402,  -0.00004706,  -0.00000001,  -0.00000059,  -0.00000000,   0.00000480,  -0.00000368,  -0.00000031,   0.00000007,   0.00000007,  -0.00000000
 14.66833300,   0.00000000,  -0.00000402,  -0.00004705,  -0.00000001,  -0.00000059,  -0.00000000,   0.00000471,  -0.00000360,  -0.00000031,   0.00000006,   0.00000007,  -0.00000000
 14.80150000,  -0.00000000,  -0.00000402,  -0.00004706,  -0.00000001,  -0.00000059,  -0.00000000,   0.00000462,  -0.00000352,  -0.00000031,   0.00000006,   0.00000007,  -0.00000000
 14.93466700,   0.00000000,  -0.00000402,  -0.00004707,  -0.00000001,  -0.00000059,  -0.00000000,   0.00000454,  -0.00000344,  -0.00000031,   0.00000006,   0.00000007,  -0.00000000
 15.06783300,  -0.00000000,  -0.00000402,  -0.00004707,  -0.00000001,  -0.00000059,  -0.00000000,   0.00000445,  -0.00000337,  -0.00000031,   0.00000006,   0.00000006,  -0.00000000
 15.20100000,  -0.00000000,  -0.00000402,  -0.00004705,  -0.00000001,  -0.00000059,  -0.00000000,   0.00000437,  -0.00000329,  -0.00000031,   0.00000006,   0.00000006,  -0.00000000
 15.33416700,  -0.00000000,  -0.00000402,  -0.00004705,  -0.00000001,  -0.00000059,  -0.00000000,   0.00000430,  -0.00000322,  -0.00000031,   0.00000006,   0.00000006,  -0.00000000
 15.46733300,  -0.00000000,  -0.00000402,  -0.00004705,  -0.00000001,  -0.00000059,  -0.00000000,   0.00000422,  -0.00000315,  -0.00000031,   0.00000006,   0.00000006,  -0.00000000
 15.60050000,  -0.00000000,  -0.00000402,  -0.00004706,  -0.00000001,  -0.00000059,  -0.00000000,   0.00000415,  -0.00000309,  -0.00000031,   0.00000006,   0.00000006,  -0.00000000
 15.73366700,  -0.00000000,  -0.00000402,  -0.00004706,  -0.00000001,  -0.00000059,  -0.00000000,   0.00000408,  -0.00000303,  -0.00000031,   0.00000006,   0.00000006,  -0.00000000
 15.86683300,   0.00000000,  -0.00000402,  -0.00004706,  -0.00000001,  -0.00000059,  -0.00000000,   0.00000401,  -0.00000296,  -0.00000031,   0.00000006,   0.00000006,  -0.00000000
 16.00000000,   0.00000000,  -0.00000402,  -0.00004706,  -0.00000001,  -0.00000059,  -0.00000000,   0.00000394,  -0.00000290,  -0.00000031,   0.00000005,   0.00000006,  -0.00000000
