Time (m)    , Stress_xx (MPa), Stress_yy (MPa), Stress_zz (MPa), Stress_xy (MPa), Stress_xz (MPa), Stress_yz (MPa), Strain_xx   , Strain_yy   , Strain_zz   , Strain_xy   , Strain_xz   , Strain_yz   
  0.00000000,   0.00000000,   0.00000000,   0.00000000,   0.00000000,   0.00000000,   0.00000000,   0.00000000,   0.00000000,   0.00000000,   0.00000000,   0.00000000,   0.00000000
  0.00050000,   0.00000002,   0.00000007,   0.04999952,  -0.00000000,  -0.00000001,   0.00000000,  -0.00000052,  -0.00000072,   0.00000216,  -0.00000000,  -0.00000018,  -0.00000001
  0.00100000,  -0.00000038,   0.00000012,   0.10000288,   0.00000000,   0.00000004,   0.00000000,  -0.00000111,  -0.00000155,   0.00000448,  -0.00000000,  -0.00000039,  -0.00000001
  0.00150000,  -0.00000004,  -0.00000001,   0.15000359,   0.00000001,  -0.00000003,   0.00000000,  -0.00000175,  -0.00000242,   0.00000685,  -0.00000000,  -0.00000061,  -0.00000002
  0.00200000,   0.00000085,   0.00000187,   0.20000342,   0.00000001,   0.00000033,  -0.00000001,  -0.00000240,  -0.00000329,   0.00000925,  -0.00000001,  -0.00000083,  -0.00000002
  0.00250000,  -0.00000128,   0.00000250,   0.25000046,  -0.00000001,   0.00000132,  -0.00000000,  -0.00000307,  -0.00000418,   0.00001166,  -0.00000001,  -0.00000106,  -0.00000003
  0.00300000,  -0.00000193,   0.00000240,   0.30000247,  -0.00000000,   0.00000108,  -0.00000000,  -0.00000376,  -0.00000508,   0.00001409,  -0.00000001,  -0.00000129,  -0.00000003
  0.00350000,  -0.00000067,   0.00000158,   0.34999865,  -0.00000001,   0.00000090,  -0.00000000,  -0.00000446,  -0.00000598,   0.00001653,  -0.00000001,  -0.00000152,  -0.00000004
  0.00400000,  -0.00000081,   0.00000149,   0.39999950,  -0.00000000,   0.00000074,  -0.00000000,  -0.00000517,  -0.00000688,   0.00001899,  -0.00000001,  -0.00000175,  -0.00000004
  0.00450000,  -0.00000029,   0.00000108,   0.44999854,  -0.00000001,   0.00000067,  -0.00000000,  -0.00000589,  -0.00000779,   0.00002145,  -0.00000001,  -0.00000198,  -0.00000005
  0.00500000,  -0.00000051,   0.00000122,   0.49999868,  -0.00000000,   0.00000061,  -0.00000000,  -0.00000662,  -0.00000870,   0.00002393,  -0.00000002,  -0.00000221,  -0.00000006
  0.00550000,  -0.00000019,   0.00000090,   0.54999855,  -0.00000001,   0.00000057,  -0.00000000,  -0.00000736,  -0.00000961,   0.00002641,  -0.00000002,  -0.00000245,  -0.00000006
  0.00600000,  -0.00000036,   0.00000102,   0.59999864,  -0.00000000,   0.00000052,  -0.00000000,  -0.00000811,  -0.00001053,   0.00002890,  -0.00000002,  -0.00000269,  -0.00000007
  0.00650000,  -0.00000010,   0.00000075,   0.64999860,  -0.00000000,   0.00000049,  -0.00000000,  -0.00000887,  -0.00001145,   0.00003139,  -0.00000002,  -0.00000292,  -0.00000007
  0.00700000,  -0.00000028,   0.00000087,   0.69999865,  -0.00000000,   0.00000045,  -0.00000000,  -0.00000963,  -0.00001237,   0.00003389,  -0.00000002,  -0.00000316,  -0.00000008
  0.00750000,  -0.00000008,   0.00000066,   0.74999866,  -0.00000000,   0.00000043,  -0.00000000,  -0.00001040,  -0.00001329,   0.00003640,  -0.00000002,  -0.00000340,  -0.00000008
  0.00800000,  -0.00000022,   0.00000076,   0.79999870,  -0.00000000,   0.00000039,  -0.00000000,  -0.00001118,  -0.00001422,   0.00003891,  -0.00000003,  -0.00000364,  -0.00000009
  0.00850000,  -0.00000006,   0.00000058,   0.84999874,  -0.00000000,   0.00000038,  -0.00000000,  -0.00001196,  -0.00001514,   0.00004143,  -0.00000003,  -0.00000388,  -0.00000010
  0.00900000,   0.00003115,  -0.00002071,   0.90000726,   0.00000003,   0.00000348,   0.00000001,  -0.00001274,  -0.00001607,   0.00004396,  -0.00000003,  -0.00000412,  -0.00000010
  0.00950000,   0.00000399,   0.00000111,   0.94996767,  -0.00000000,   0.00000105,   0.00000000,  -0.00001354,  -0.00001700,   0.00004648,  -0.00000003,  -0.00000436,  -0.00000011
  0.01000000,  -0.00002114,   0.00002891,   0.99998255,  -0.00000011,   0.00000225,  -0.00000003,  -0.00001434,  -0.00001793,   0.00004901,  -0.00000003,  -0.00000461,  -0.00000011
  0.07658333,  -0.00002730,   0.00002447,   1.00003420,  -0.00000021,   0.00000288,  -0.00000003,  -0.00001761,  -0.00001977,   0.00005252,  -0.00000005,  -0.00000525,  -0.00000012
  0.14316667,  -0.00002180,   0.00002810,   0.99993286,  -0.00000016,   0.00000160,  -0.00000003,  -0.00001782,  -0.00002029,   0.00005303,  -0.00000005,  -0.00000539,  -0.00000012
  0.20975000,  -0.00002289,   0.00002627,   1.00000850,  -0.00000014,   0.00000168,  -0.00000002,  -0.00001788,  -0.00002054,   0.00005326,  -0.00000005,  -0.00000545,  -0.00000012
  0.27633333,  -0.00002081,   0.00002664,   0.99997003,  -0.00000013,   0.00000176,  -0.00000001,  -0.00001790,  -0.00002067,   0.00005336,  -0.00000005,  -0.00000548,  -0.00000012
  0.34291667,  -0.00002126,   0.00002850,   0.99997125,  -0.00000012,   0.00000233,  -0.00000001,  -0.00001790,  -0.00002073,   0.00005341,  -0.00000005,  -0.00000549,  -0.00000012
  0.40950000,  -0.00001720,   0.00002451,   0.99997144,  -0.00000011,  -0.00000009,  -0.00000006,  -0.00001790,  -0.00002076,   0.00005343,  -0.00000005,  -0.00000550,  -0.00000012
  0.47608333,  -0.00001889,   0.00002579,   0.99999012,  -0.00000010,   0.00000068,  -0.00000003,  -0.00001790,  -0.00002078,   0.00005344,  -0.00000005,  -0.00000550,  -0.00000012
  0.54266667,  -0.00001991,   0.00002686,   0.99999825,  -0.00000010,   0.00000147,  -0.00000005,  -0.00001791,  -0.00002079,   0.00005345,  -0.00000005,  -0.00000550,  -0.00000012
  0.60925000,  -0.00001840,   0.00002170,   1.00002430,  -0.00000010,   0.00000122,  -0.00000007,  -0.00001791,  -0.00002080,   0.00005346,  -0.00000005,  -0.00000551,  -0.00000012
  0.67583333,  -0.00001782,   0.00002509,   0.99996626,  -0.00000011,   0.00000104,  -0.00000004,  -0.00001791,  -0.00002080,   0.00005346,  -0.00000005,  -0.00000551,  -0.00000012
  0.74241667,  -0.00001887,   0.00002612,   0.99997100,  -0.00000011,   0.00000162,  -0.00000001,  -0.00001791,  -0.00002081,   0.00005346,  -0.00000005,  -0.00000551,  -0.00000012
  0.80900000,  -0.00002065,   0.00002780,   0.99999000,  -0.00000012,   0.00000229,  -0.00000003,  -0.00001791,  -0.00002081,   0.00005347,  -0.00000005,  -0.00000551,  -0.00000012
  0.87558333,  -0.00002104,   0.00002883,   0.99997910,  -0.00000012,   0.00000231,  -0.00000003,  -0.00001791,  -0.00002081,   0.00005347,  -0.00000005,  -0.00000551,  -0.00000012
  0.94216667,  -0.00002085,   0.00002909,   0.99996805,  -0.00000012,   0.00000225,  -0.00000002,  -0.00001791,  -0.00002082,   0.00005348,  -0.00000005,  -0.00000551,  -0.00000012
  1.00875000,  -0.00002129,   0.00002867,   0.99998733,  -0.00000012,   0.00000239,  -0.00000003,  -0.00001792,  -0.00002082,   0.00005348,  -0.00000005,  -0.00000551,  -0.00000012
  1.07533330,  -0.00002105,   0.00002831,   0.99998974,  -0.00000012,   0.00000232,  -0.00000004,  -0.00001792,  -0.00002082,   0.00005348,  -0.00000005,  -0.00000551,  -0.00000012
  1.14191670,  -0.00002074,   0.00002865,   0.99997524,  -0.00000011,   0.00000211,  -0.00000003,  -0.00001792,  -0.00002082,   0.00005349,  -0.00000005,  -0.00000551,  -0.00000012
  1.20850000,  -0.00002064,   0.00002857,   0.99997236,  -0.00000011,   0.00000206,  -0.00000002,  -0.00001792,  -0.00002083,   0.00005349,  -0.00000005,  -0.00000551,  -0.00000012
  1.27508330,  -0.00002116,   0.00002855,   0.99998779,  -0.00000011,   0.00000230,  -0.00000003,  -0.00001792,  -0.00002083,   0.00005349,  -0.00000005,  -0.00000551,  -0.00000012
  1.34166670,  -0.00002103,   0.00002879,   0.99998119,  -0.00000011,   0.00000224,  -0.00000003,  -0.00001793,  -0.00002083,   0.00005350,  -0.00000005,  -0.00000551,  -0.00000012
  1.40825000,  -0.00002284,   0.00002840,   1.00003230,  -0.00000012,   0.00000290,  -0.00000004,  -0.00001793,  -0.00002083,   0.00005350,  -0.00000005,  -0.00000551,  -0.00000012
  1.47483330,  -0.00002159,   0.00002867,   0.99999560,  -0.00000011,   0.00000243,  -0.00000003,  -0.00001793,  -0.00002083,   0.00005350,  -0.00000005,  -0.00000552,  -0.00000012
  1.54141670,  -0.00001908,   0.00002965,   0.99991538,  -0.00000010,   0.00000134,  -0.00000000,  -0.00001793,  -0.00002083,   0.00005350,  -0.00000005,  -0.00000552,  -0.00000012
  1.60800000,  -0.00002091,   0.00002891,   0.99997624,  -0.00000011,   0.00000215,  -0.00000003,  -0.00001793,  -0.00002084,   0.00005351,  -0.00000005,  -0.00000552,  -0.00000012
  1.67458330,  -0.00002099,   0.00002889,   0.99998004,  -0.00000011,   0.00000222,  -0.00000003,  -0.00001794,  -0.00002084,   0.00005351,  -0.00000005,  -0.00000552,  -0.00000012
  1.74116670,  -0.00002105,   0.00002889,   0.99998056,  -0.00000011,   0.00000222,  -0.00000003,  -0.00001794,  -0.00002084,   0.00005352,  -0.00000005,  -0.00000552,  -0.00000012
  1.80775000,  -0.00002145,   0.00002901,   0.99998953,  -0.00000010,   0.00000238,  -0.00000004,  -0.00001794,  -0.00002084,   0.00005352,  -0.00000005,  -0.00000552,  -0.00000012
  1.87433330,  -0.00002345,   0.00002776,   1.00005250,  -0.00000010,   0.00000328,  -0.00000004,  -0.00001794,  -0.00002084,   0.00005353,  -0.00000005,  -0.00000552,  -0.00000012
  1.94091670,  -0.00002173,   0.00002855,   1.00000170,  -0.00000011,   0.00000253,  -0.00000003,  -0.00001795,  -0.00002084,   0.00005353,  -0.00000005,  -0.00000552,  -0.00000012
  2.00750000,  -0.00002120,   0.00002879,   0.99998585,  -0.00000011,   0.00000229,  -0.00000004,  -0.00001795,  -0.00002084,   0.00005353,  -0.00000005,  -0.00000552,  -0.00000012
  2.07408330,  -0.00002113,   0.00002882,   0.99998440,  -0.00000011,   0.00000227,  -0.00000003,  -0.00001795,  -0.00002084,   0.00005353,  -0.00000005,  -0.00000552,  -0.00000012
  2.14066670,  -0.00002119,   0.00002916,   0.99998080,  -0.00000011,   0.00000224,  -0.00000005,  -0.00001795,  -0.00002085,   0.00005354,  -0.00000005,  -0.00000552,  -0.00000012
  2.20725000,  -0.00002124,   0.00002900,   0.99998264,  -0.00000012,   0.00000225,  -0.00000003,  -0.00001796,  -0.00002085,   0.00005354,  -0.00000005,  -0.00000552,  -0.00000012
  2.27383330,  -0.00002112,   0.00002884,   0.99998202,  -0.00000012,   0.00000223,  -0.00000003,  -0.00001796,  -0.00002085,   0.00005354,  -0.00000005,  -0.00000553,  -0.00000012
  2.34041670,  -0.00002099,   0.00002890,   0.99997909,  -0.00000012,   0.00000220,  -0.00000003,  -0.00001796,  -0.00002085,   0.00005354,  -0.00000005,  -0.00000553,  -0.00000012
  2.40700000,  -0.00002127,   0.00002877,   0.99998788,  -0.00000012,   0.00000232,  -0.00000003,  -0.00001796,  -0.00002085,   0.00005355,  -0.00000005,  -0.00000553,  -0.00000012
  2.47358330,  -0.00001834,   0.00003067,   0.99988643,  -0.00000012,   0.00000090,  -0.00000002,  -0.00001796,  -0.00002085,   0.00005355,  -0.00000005,  -0.00000553,  -0.00000012
  2.54016670,  -0.00002135,   0.00002898,   0.99997911,  -0.00000011,   0.00000222,  -0.00000003,  -0.00001797,  -0.00002085,   0.00005355,  -0.00000005,  -0.00000553,  -0.00000012
  2.60675000,  -0.00001994,   0.00002962,   0.99993952,  -0.00000011,   0.00000164,  -0.00000004,  -0.00001797,  -0.00002085,   0.00005356,  -0.00000005,  -0.00000553,  -0.00000012
  2.67333330,  -0.00002061,   0.00002907,   0.99996304,  -0.00000011,   0.00000194,  -0.00000006,  -0.00001797,  -0.00002085,   0.00005356,  -0.00000005,  -0.00000553,  -0.00000012
  2.73991670,  -0.00002024,   0.00002931,   0.99995261,  -0.00000011,   0.00000182,  -0.00000004,  -0.00001797,  -0.00002085,   0.00005356,  -0.00000005,  -0.00000553,  -0.00000012
  2.80650000,  -0.00001927,   0.00002985,   0.99992125,  -0.00000011,   0.00000139,  -0.00000003,  -0.00001798,  -0.00002085,   0.00005356,  -0.00000005,  -0.00000553,  -0.00000012
  2.87308330,  -0.00002072,   0.00002913,   0.99996853,  -0.00000011,   0.00000204,  -0.00000004,  -0.00001798,  -0.00002086,   0.00005357,  -0.00000005,  -0.00000553,  -0.00000012
  2.93966670,  -0.00002344,   0.00002759,   1.00005950,  -0.00000012,   0.00000333,  -0.00000004,  -0.00001798,  -0.00002086,   0.00005358,  -0.00000005,  -0.00000553,  -0.00000012
  3.00625000,  -0.00002142,   0.00002878,   0.99999326,  -0.00000011,   0.00000241,  -0.00000002,  -0.00001799,  -0.00002086,   0.00005358,  -0.00000005,  -0.00000553,  -0.00000012
  3.07283330,  -0.00002192,   0.00002849,   1.00000810,  -0.00000011,   0.00000261,  -0.00000002,  -0.00001799,  -0.00002086,   0.00005358,  -0.00000005,  -0.00000553,  -0.00000012
  3.13941670,  -0.00002164,   0.00002861,   1.00000170,  -0.00000012,   0.00000252,  -0.00000001,  -0.00001799,  -0.00002086,   0.00005358,  -0.00000005,  -0.00000554,  -0.00000012
  3.20600000,  -0.00002183,   0.00002847,   1.00001160,  -0.00000012,   0.00000266,  -0.00000000,  -0.00001799,  -0.00002086,   0.00005359,  -0.00000005,  -0.00000554,  -0.00000012
  3.27258330,  -0.00002075,   0.00002912,   0.99997153,  -0.00000011,   0.00000208,  -0.00000003,  -0.00001799,  -0.00002086,   0.00005359,  -0.00000005,  -0.00000554,  -0.00000012
  3.33916670,  -0.00002131,   0.00002878,   0.99998732,  -0.00000011,   0.00000232,  -0.00000004,  -0.00001800,  -0.00002086,   0.00005359,  -0.00000005,  -0.00000554,  -0.00000012
  3.40575000,  -0.00002090,   0.00002903,   0.99997471,  -0.00000011,   0.00000214,  -0.00000004,  -0.00001800,  -0.00002086,   0.00005359,  -0.00000005,  -0.00000554,  -0.00000012
  3.47233330,  -0.00002044,   0.00002929,   0.99996004,  -0.00000011,   0.00000193,  -0.00000004,  -0.00001800,  -0.00002086,   0.00005360,  -0.00000005,  -0.00000554,  -0.00000012
  3.53891670,  -0.00002012,   0.00002947,   0.99995007,  -0.00000011,   0.00000179,  -0.00000005,  -0.00001800,  -0.00002087,   0.00005360,  -0.00000005,  -0.00000554,  -0.00000012
  3.60550000,  -0.00002126,   0.00002881,   0.99998688,  -0.00000011,   0.00000231,  -0.00000004,  -0.00001801,  -0.00002087,   0.00005360,  -0.00000005,  -0.00000554,  -0.00000012
  3.67208330,  -0.00002151,   0.00002864,   0.99999508,  -0.00000011,   0.00000243,  -0.00000003,  -0.00001801,  -0.00002087,   0.00005361,  -0.00000005,  -0.00000554,  -0.00000012
  3.73866670,  -0.00002247,   0.00002807,   1.00002600,  -0.00000011,   0.00000288,  -0.00000003,  -0.00001801,  -0.00002087,   0.00005361,  -0.00000005,  -0.00000554,  -0.00000012
  3.80525000,  -0.00002057,   0.00002921,   0.99996399,  -0.00000011,   0.00000199,  -0.00000002,  -0.00001802,  -0.00002087,   0.00005361,  -0.00000005,  -0.00000554,  -0.00000012
  3.87183330,  -0.00002098,   0.00002900,   0.99997642,  -0.00000011,   0.00000214,  -0.00000002,  -0.00001802,  -0.00002087,   0.00005362,  -0.00000005,  -0.00000554,  -0.00000012
  3.93841670,  -0.00002194,   0.00002840,   1.00001170,  -0.00000011,   0.00000264,  -0.00000002,  -0.00001802,  -0.00002087,   0.00005362,  -0.00000005,  -0.00000554,  -0.00000012
  4.00500000,  -0.00002027,   0.00002938,   0.99995607,  -0.00000011,   0.00000186,  -0.00000002,  -0.00001802,  -0.00002087,   0.00005362,  -0.00000005,  -0.00000555,  -0.00000012
  4.07158330,  -0.00002095,   0.00002901,   0.99997600,  -0.00000012,   0.00000213,  -0.00000001,  -0.00001803,  -0.00002087,   0.00005363,  -0.00000005,  -0.00000555,  -0.00000012
  4.13816670,  -0.00002075,   0.00002911,   0.99997009,  -0.00000011,   0.00000207,  -0.00000003,  -0.00001803,  -0.00002087,   0.00005363,  -0.00000005,  -0.00000555,  -0.00000012
  4.20475000,  -0.00002064,   0.00002916,   0.99996612,  -0.00000011,   0.00000203,  -0.00000004,  -0.00001803,  -0.00002087,   0.00005363,  -0.00000005,  -0.00000555,  -0.00000012
  4.27133330,  -0.00002138,   0.00002875,   0.99999037,  -0.00000011,   0.00000236,  -0.00000004,  -0.00001803,  -0.00002087,   0.00005364,  -0.00000005,  -0.00000555,  -0.00000012
  4.33791670,  -0.00002182,   0.00002846,   1.00000520,  -0.00000012,   0.00000256,  -0.00000003,  -0.00001804,  -0.00002088,   0.00005364,  -0.00000005,  -0.00000555,  -0.00000012
  4.40450000,  -0.00002099,   0.00002897,   0.99997777,  -0.00000011,   0.00000218,  -0.00000003,  -0.00001804,  -0.00002088,   0.00005364,  -0.00000005,  -0.00000555,  -0.00000012
  4.47108330,  -0.00002117,   0.00002889,   0.99998332,  -0.00000011,   0.00000225,  -0.00000003,  -0.00001804,  -0.00002088,   0.00005364,  -0.00000005,  -0.00000555,  -0.00000012
  4.53766670,  -0.00001991,   0.00002958,   0.99994029,  -0.00000011,   0.00000167,  -0.00000003,  -0.00001804,  -0.00002088,   0.00005365,  -0.00000005,  -0.00000555,  -0.00000012
  4.60425000,  -0.00002065,   0.00002920,   0.99996514,  -0.00000011,   0.00000199,  -0.00000002,  -0.00001805,  -0.00002088,   0.00005365,  -0.00000005,  -0.00000555,  -0.00000012
  4.67083330,  -0.00002137,   0.00002875,   0.99999019,  -0.00000011,   0.00000236,  -0.00000003,  -0.00001805,  -0.00002088,   0.00005365,  -0.00000005,  -0.00000555,  -0.00000012
  4.73741670,  -0.00002264,   0.00002799,   1.00003180,  -0.00000012,   0.00000296,  -0.00000003,  -0.00001805,  -0.00002088,   0.00005366,  -0.00000005,  -0.00000555,  -0.00000012
  4.80400000,  -0.00002102,   0.00002896,   0.99997868,  -0.00000011,   0.00000218,  -0.00000003,  -0.00001805,  -0.00002088,   0.00005366,  -0.00000005,  -0.00000555,  -0.00000012
  4.87058330,  -0.00002043,   0.00002934,   0.99995631,  -0.00000011,   0.00000185,  -0.00000002,  -0.00001806,  -0.00002088,   0.00005366,  -0.00000005,  -0.00000556,  -0.00000012
  4.93716670,  -0.00002241,   0.00002817,   1.00002420,  -0.00000011,   0.00000283,  -0.00000003,  -0.00001806,  -0.00002088,   0.00005367,  -0.00000005,  -0.00000556,  -0.00000012
  5.00375000,  -0.00002134,   0.00002876,   0.99999144,  -0.00000011,   0.00000239,  -0.00000003,  -0.00001806,  -0.00002088,   0.00005367,  -0.00000005,  -0.00000556,  -0.00000012
  5.07033330,  -0.00002140,   0.00002876,   0.99999105,  -0.00000011,   0.00000236,  -0.00000003,  -0.00001806,  -0.00002088,   0.00005367,  -0.00000005,  -0.00000556,  -0.00000012
  5.13691670,  -0.00002095,   0.00002901,   0.99997636,  -0.00000011,   0.00000216,  -0.00000003,  -0.00001807,  -0.00002088,   0.00005367,  -0.00000005,  -0.00000556,  -0.00000012
  5.20350000,  -0.00002119,   0.00002888,   0.99998408,  -0.00000011,   0.00000226,  -0.00000003,  -0.00001807,  -0.00002088,   0.00005368,  -0.00000005,  -0.00000556,  -0.00000012
  5.27008330,  -0.00001930,   0.00002997,   0.99992126,  -0.00000011,   0.00000142,  -0.00000003,  -0.00001807,  -0.00002088,   0.00005368,  -0.00000005,  -0.00000556,  -0.00000012
  5.33666670,  -0.00002075,   0.00002923,   0.99996890,  -0.00000011,   0.00000207,  -0.00000003,  -0.00001807,  -0.00002088,   0.00005368,  -0.00000005,  -0.00000556,  -0.00000012
  5.40325000,  -0.00002271,   0.00002800,   1.00003560,  -0.00000011,   0.00000302,  -0.00000003,  -0.00001808,  -0.00002089,   0.00005369,  -0.00000005,  -0.00000556,  -0.00000012
  5.46983330,  -0.00002170,   0.00002854,   1.00000290,  -0.00000010,   0.00000256,  -0.00000001,  -0.00001808,  -0.00002089,   0.00005369,  -0.00000005,  -0.00000556,  -0.00000012
  5.53641670,  -0.00002183,   0.00002852,   1.00000470,  -0.00000011,   0.00000255,  -0.00000002,  -0.00001808,  -0.00002089,   0.00005369,  -0.00000005,  -0.00000556,  -0.00000012
  5.60300000,  -0.00002099,   0.00002898,   0.99997771,  -0.00000011,   0.00000218,  -0.00000003,  -0.00001808,  -0.00002089,   0.00005370,  -0.00000005,  -0.00000556,  -0.00000012
  5.66958330,  -0.00002062,   0.00002921,   0.99996508,  -0.00000011,   0.00000201,  -0.00000004,  -0.00001809,  -0.00002089,   0.00005370,  -0.00000005,  -0.00000556,  -0.00000012
  5.73616670,  -0.00001817,   0.00003057,   0.99988556,  -0.00000011,   0.00000090,  -0.00000006,  -0.00001809,  -0.00002089,   0.00005370,  -0.00000005,  -0.00000557,  -0.00000012
  5.80275000,  -0.00002084,   0.00002908,   0.99997144,  -0.00000011,   0.00000209,  -0.00000003,  -0.00001809,  -0.00002089,   0.00005370,  -0.00000005,  -0.00000557,  -0.00000012
  5.86933330,  -0.00002092,   0.00002903,   0.99997687,  -0.00000011,   0.00000218,  -0.00000003,  -0.00001810,  -0.00002089,   0.00005371,  -0.00000005,  -0.00000557,  -0.00000012
  5.93591670,  -0.00002104,   0.00002898,   0.99997907,  -0.00000011,   0.00000220,  -0.00000003,  -0.00001810,  -0.00002089,   0.00005371,  -0.00000005,  -0.00000557,  -0.00000012
  6.00250000,  -0.00002128,   0.00002883,   0.99998950,  -0.00000011,   0.00000238,  -0.00000004,  -0.00001810,  -0.00002089,   0.00005371,  -0.00000005,  -0.00000557,  -0.00000012
  6.06908330,  -0.00002223,   0.00002828,   1.00001780,  -0.00000011,   0.00000276,  -0.00000005,  -0.00001810,  -0.00002089,   0.00005372,  -0.00000005,  -0.00000557,  -0.00000012
  6.13566670,  -0.00002017,   0.00002945,   0.99994968,  -0.00000011,   0.00000179,  -0.00000005,  -0.00001811,  -0.00002089,   0.00005372,  -0.00000005,  -0.00000557,  -0.00000012
  6.20225000,  -0.00002103,   0.00002897,   0.99997586,  -0.00000011,   0.00000217,  -0.00000005,  -0.00001811,  -0.00002089,   0.00005372,  -0.00000005,  -0.00000557,  -0.00000012
  6.26883330,  -0.00002073,   0.00002915,   0.99996955,  -0.00000011,   0.00000205,  -0.00000004,  -0.00001811,  -0.00002089,   0.00005372,  -0.00000005,  -0.00000557,  -0.00000012
  6.33541670,  -0.00002125,   0.00002884,   0.99998634,  -0.00000011,   0.00000230,  -0.00000003,  -0.00001811,  -0.00002089,   0.00005373,  -0.00000005,  -0.00000557,  -0.00000012
  6.40200000,  -0.00002207,   0.00002837,   1.00001410,  -0.00000011,   0.00000270,  -0.00000001,  -0.00001812,  -0.00002089,   0.00005373,  -0.00000005,  -0.00000557,  -0.00000012
  6.46858330,  -0.00002287,   0.00002786,   1.00004070,  -0.00000012,   0.00000308,   0.00000002,  -0.00001812,  -0.00002090,   0.00005374,  -0.00000005,  -0.00000557,  -0.00000012
  6.53516670,  -0.00002048,   0.00002931,   0.99996300,  -0.00000012,   0.00000195,  -0.00000002,  -0.00001812,  -0.00002090,   0.00005374,  -0.00000005,  -0.00000557,  -0.00000012
  6.60175000,  -0.00002113,   0.00002891,   0.99998161,  -0.00000011,   0.00000223,  -0.00000004,  -0.00001812,  -0.00002090,   0.00005374,  -0.00000005,  -0.00000557,  -0.00000012
  6.66833330,  -0.00002085,   0.00002907,   0.99997358,  -0.00000011,   0.00000212,  -0.00000004,  -0.00001813,  -0.00002090,   0.00005374,  -0.00000005,  -0.00000558,  -0.00000012
  6.73491670,  -0.00002082,   0.00002906,   0.99997232,  -0.00000011,   0.00000210,  -0.00000004,  -0.00001813,  -0.00002090,   0.00005375,  -0.00000005,  -0.00000558,  -0.00000012
  6.80150000,  -0.00002035,   0.00002933,   0.99995588,  -0.00000011,   0.00000187,  -0.00000004,  -0.00001813,  -0.00002090,   0.00005375,  -0.00000005,  -0.00000558,  -0.00000012
  6.86808330,  -0.00002126,   0.00002883,   0.99998605,  -0.00000011,   0.00000229,  -0.00000003,  -0.00001813,  -0.00002090,   0.00005375,  -0.00000005,  -0.00000558,  -0.00000012
  6.93466670,  -0.00002146,   0.00002870,   0.99999390,  -0.00000011,   0.00000242,  -0.00000003,  -0.00001814,  -0.00002090,   0.00005376,  -0.00000005,  -0.00000558,  -0.00000012
  7.00125000,  -0.00002321,   0.00002773,   1.00005240,  -0.00000011,   0.00000326,  -0.00000003,  -0.00001814,  -0.00002090,   0.00005376,  -0.00000005,  -0.00000558,  -0.00000012
  7.06783330,  -0.00002143,   0.00002876,   0.99999233,  -0.00000011,   0.00000239,  -0.00000002,  -0.00001814,  -0.00002090,   0.00005376,  -0.00000005,  -0.00000558,  -0.00000012
  7.13441670,  -0.00001891,   0.00003019,   0.99990816,  -0.00000011,   0.00000113,  -0.00000001,  -0.00001814,  -0.00002090,   0.00005376,  -0.00000005,  -0.00000558,  -0.00000012
  7.20100000,  -0.00002146,   0.00002870,   0.99999103,  -0.00000011,   0.00000235,  -0.00000002,  -0.00001815,  -0.00002090,   0.00005377,  -0.00000005,  -0.00000558,  -0.00000012
  7.26758330,  -0.00002105,   0.00002894,   0.99998158,  -0.00000011,   0.00000224,  -0.00000004,  -0.00001815,  -0.00002090,   0.00005377,  -0.00000005,  -0.00000558,  -0.00000012
  7.33416670,  -0.00002133,   0.00002880,   0.99998837,  -0.00000011,   0.00000233,  -0.00000003,  -0.00001815,  -0.00002090,   0.00005377,  -0.00000005,  -0.00000558,  -0.00000012
  7.40075000,  -0.00001848,   0.00003046,   0.99989706,  -0.00000011,   0.00000104,  -0.00000004,  -0.00001815,  -0.00002090,   0.00005377,  -0.00000005,  -0.00000558,  -0.00000012
  7.46733330,  -0.00002072,   0.00002913,   0.99996726,  -0.00000011,   0.00000202,  -0.00000003,  -0.00001816,  -0.00002090,   0.00005378,  -0.00000005,  -0.00000558,  -0.00000012
  7.53391670,  -0.00002001,   0.00002950,   0.99994551,  -0.00000011,   0.00000172,  -0.00000002,  -0.00001816,  -0.00002090,   0.00005378,  -0.00000005,  -0.00000559,  -0.00000012
  7.60050000,  -0.00002065,   0.00002917,   0.99996456,  -0.00000011,   0.00000198,  -0.00000002,  -0.00001816,  -0.00002090,   0.00005378,  -0.00000005,  -0.00000559,  -0.00000012
  7.66708330,  -0.00002163,   0.00002857,   0.99999862,  -0.00000012,   0.00000246,  -0.00000003,  -0.00001817,  -0.00002090,   0.00005379,  -0.00000005,  -0.00000559,  -0.00000012
  7.73366670,  -0.00002281,   0.00002792,   1.00003690,  -0.00000011,   0.00000298,  -0.00000003,  -0.00001817,  -0.00002091,   0.00005379,  -0.00000005,  -0.00000559,  -0.00000012
  7.80025000,  -0.00002097,   0.00002899,   0.99997626,  -0.00000011,   0.00000216,  -0.00000003,  -0.00001817,  -0.00002091,   0.00005379,  -0.00000005,  -0.00000559,  -0.00000012
  7.86683330,  -0.00002034,   0.00002944,   0.99995547,  -0.00000011,   0.00000188,  -0.00000003,  -0.00001817,  -0.00002091,   0.00005379,  -0.00000005,  -0.00000559,  -0.00000012
  7.93341670,  -0.00002379,   0.00002743,   1.00007140,  -0.00000011,   0.00000353,  -0.00000004,  -0.00001818,  -0.00002091,   0.00005380,  -0.00000005,  -0.00000559,  -0.00000012
  8.00000000,  -0.00002121,   0.00002886,   0.99998517,  -0.00000011,   0.00000228,  -0.00000003,  -0.00001818,  -0.00002091,   0.00005380,  -0.00000005,  -0.00000559,  -0.00000012
  8.00025000,  -0.00002875,   0.00004354,   0.97496575,  -0.00000010,   0.00000339,  -0.00000009,  -0.00001794,  -0.00002058,   0.00005277,  -0.00000005,  -0.00000551,  -0.00000012
  8.00050000,  -0.00002453,   0.00002605,   0.94997837,  -0.00000010,   0.00000147,   0.00000000,  -0.00001767,  -0.00002019,   0.00005165,  -0.00000005,  -0.00000541,  -0.00000012
  8.00075000,  -0.00002962,   0.00003577,   0.92498065,  -0.00000008,  -0.00000108,  -0.00000002,  -0.00001738,  -0.00001978,   0.00005050,  -0.00000004,  -0.00000531,  -0.00000011
  8.00100000,  -0.00002206,   0.00002819,   0.89998171,  -0.00000010,   0.00000188,  -0.00000001,  -0.00001707,  -0.00001936,   0.00004933,  -0.00000004,  -0.00000520,  -0.00000011
  8.00125000,  -0.00002232,   0.00002908,   0.87498672,  -0.00000011,   0.00000131,  -0.00000002,  -0.00001676,  -0.00001893,   0.00004815,  -0.00000004,  -0.00000509,  -0.00000011
  8.00150000,  -0.00002221,   0.00002627,   0.84998881,  -0.00000015,  -0.00000096,  -0.00000005,  -0.00001645,  -0.00001850,   0.00004697,  -0.00000004,  -0.00000498,  -0.00000011
  8.00175000,  -0.00002302,   0.00002682,   0.82500894,  -0.00000015,   0.00000084,  -0.00000005,  -0.00001612,  -0.00001806,   0.00004577,  -0.00000004,  -0.00000487,  -0.00000010
  8.00200000,  -0.00002321,   0.00002959,   0.79998113,  -0.00000011,  -0.00000011,  -0.00000004,  -0.00001579,  -0.00001762,   0.00004457,  -0.00000004,  -0.00000476,  -0.00000010
  8.00225000,  -0.00002089,   0.00002551,   0.77500430,  -0.00000011,   0.00000131,  -0.00000003,  -0.00001546,  -0.00001718,   0.00004337,  -0.00000004,  -0.00000465,  -0.00000010
  8.00250000,  -0.00002166,   0.00002839,   0.74999218,  -0.00000010,   0.00000176,  -0.00000003,  -0.00001512,  -0.00001673,   0.00004216,  -0.00000004,  -0.00000453,  -0.00000010
  8.00275000,  -0.00002133,   0.00002826,   0.72499142,  -0.00000011,   0.00000191,  -0.00000003,  -0.00001478,  -0.00001628,   0.00004094,  -0.00000004,  -0.00000442,  -0.00000009
  8.00300000,  -0.00002065,   0.00002765,   0.69999163,  -0.00000011,   0.00000189,  -0.00000002,  -0.00001444,  -0.00001584,   0.00003973,  -0.00000004,  -0.00000431,  -0.00000009
  8.00325000,  -0.00003742,   0.00003754,   0.67498752,  -0.00000014,  -0.00000075,  -0.00000003,  -0.00001409,  -0.00001539,   0.00003851,  -0.00000004,  -0.00000419,  -0.00000009
  8.00350000,  -0.00002317,   0.00002477,   0.65002547,  -0.00000013,   0.00000083,  -0.00000003,  -0.00001374,  -0.00001494,   0.00003728,  -0.00000004,  -0.00000408,  -0.00000008
  8.00375000,  -0.00001951,   0.00002723,   0.62499028,  -0.00000009,   0.00000328,  -0.00000002,  -0.00001338,  -0.00001449,   0.00003606,  -0.00000004,  -0.00000396,  -0.00000008
  8.00400000,  -0.00002032,   0.00002630,   0.60000026,  -0.00000009,   0.00000307,  -0.00000002,  -0.00001303,  -0.00001403,   0.00003483,  -0.00000003,  -0.00000384,  -0.00000008
  8.00425000,  -0.00003609,   0.00003655,   0.57499610,  -0.00000009,   0.00000154,  -0.00000000,  -0.00001267,  -0.00001358,   0.00003360,  -0.00000003,  -0.00000373,  -0.00000008
  8.00450000,  -0.00002351,   0.00002644,   0.55001900,  -0.00000011,   0.00000160,  -0.00000002,  -0.00001231,  -0.00001313,   0.00003237,  -0.00000003,  -0.00000361,  -0.00000007
  8.00475000,  -0.00002209,   0.00002913,   0.52499513,  -0.00000010,   0.00000186,  -0.00000003,  -0.00001194,  -0.00001267,   0.00003113,  -0.00000003,  -0.00000350,  -0.00000007
  8.00500000,  -0.00002183,   0.00002846,   0.49999759,  -0.00000011,   0.00000195,  -0.00000003,  -0.00001158,  -0.00001221,   0.00002989,  -0.00000003,  -0.00000338,  -0.00000007
  8.00525000,  -0.00003745,   0.00003969,   0.47499380,  -0.00000015,   0.00000020,  -0.00000004,  -0.00001121,  -0.00001176,   0.00002865,  -0.00000003,  -0.00000326,  -0.00000006
  8.00550000,  -0.00002334,   0.00002693,   0.45001679,  -0.00000014,   0.00000106,  -0.00000003,  -0.00001084,  -0.00001130,   0.00002741,  -0.00000003,  -0.00000314,  -0.00000006
  8.00575000,  -0.00002234,   0.00002957,   0.42499550,  -0.00000011,   0.00000185,  -0.00000003,  -0.00001046,  -0.00001084,   0.00002617,  -0.00000003,  -0.00000303,  -0.00000006
  8.00600000,  -0.00002223,   0.00002898,   0.39999843,  -0.00000011,   0.00000220,  -0.00000002,  -0.00001009,  -0.00001038,   0.00002492,  -0.00000003,  -0.00000291,  -0.00000006
  8.00625000,  -0.00002113,   0.00002843,   0.37499564,  -0.00000011,   0.00000216,  -0.00000002,  -0.00000971,  -0.00000993,   0.00002368,  -0.00000003,  -0.00000279,  -0.00000005
  8.00650000,  -0.00002093,   0.00002827,   0.34999574,  -0.00000011,   0.00000210,  -0.00000002,  -0.00000933,  -0.00000947,   0.00002243,  -0.00000003,  -0.00000267,  -0.00000005
  8.00675000,  -0.00002093,   0.00002817,   0.32499668,  -0.00000011,   0.00000206,  -0.00000002,  -0.00000895,  -0.00000901,   0.00002118,  -0.00000002,  -0.00000255,  -0.00000005
  8.00700000,  -0.00002088,   0.00002819,   0.29999671,  -0.00000011,   0.00000208,  -0.00000003,  -0.00000857,  -0.00000854,   0.00001993,  -0.00000002,  -0.00000243,  -0.00000004
  8.00725000,  -0.00002096,   0.00002825,   0.27499718,  -0.00000011,   0.00000209,  -0.00000003,  -0.00000818,  -0.00000808,   0.00001867,  -0.00000002,  -0.00000231,  -0.00000004
  8.00750000,  -0.00002094,   0.00002826,   0.24999745,  -0.00000011,   0.00000210,  -0.00000003,  -0.00000780,  -0.00000762,   0.00001742,  -0.00000002,  -0.00000219,  -0.00000004
  8.00775000,  -0.00002098,   0.00002831,   0.22499776,  -0.00000011,   0.00000210,  -0.00000003,  -0.00000741,  -0.00000716,   0.00001616,  -0.00000002,  -0.00000207,  -0.00000004
  8.00800000,  -0.00002096,   0.00002828,   0.19999821,  -0.00000011,   0.00000211,  -0.00000003,  -0.00000702,  -0.00000670,   0.00001491,  -0.00000002,  -0.00000195,  -0.00000003
  8.00825000,  -0.00002100,   0.00002834,   0.17499850,  -0.00000011,   0.00000211,  -0.00000003,  -0.00000663,  -0.00000624,   0.00001365,  -0.00000002,  -0.00000183,  -0.00000003
  8.00850000,  -0.00002098,   0.00002832,   0.14999891,  -0.00000011,   0.00000212,  -0.00000003,  -0.00000624,  -0.00000577,   0.00001239,  -0.00000002,  -0.00000171,  -0.00000003
  8.00875000,  -0.00002101,   0.00002837,   0.12499917,  -0.00000011,   0.00000213,  -0.00000003,  -0.00000585,  -0.00000531,   0.00001113,  -0.00000002,  -0.00000159,  -0.00000002
  8.00900000,  -0.00002099,   0.00002835,   0.09999958,  -0.00000011,   0.00000213,  -0.00000003,  -0.00000545,  -0.00000484,   0.00000987,  -0.00000002,  -0.00000147,  -0.00000002
  8.00925000,  -0.00002102,   0.00002840,   0.07499986,  -0.00000011,   0.00000213,  -0.00000003,  -0.00000506,  -0.00000438,   0.00000860,  -0.00000002,  -0.00000135,  -0.00000002
  8.00950000,  -0.00002132,   0.00002888,   0.04999952,  -0.00000011,   0.00000228,  -0.00000003,  -0.00000466,  -0.00000391,   0.00000734,  -0.00000001,  -0.00000123,  -0.00000002
  8.00975000,  -0.00002123,   0.00002885,   0.02499980,  -0.00000011,   0.00000229,  -0.00000003,  -0.00000426,  -0.00000345,   0.00000607,  -0.00000001,  -0.00000111,  -0.00000001
  8.01000000,  -0.00002118,   0.00002887,  -0.00000025,  -0.00000011,   0.00000228,  -0.00000003,  -0.00000386,  -0.00000298,   0.00000481,  -0.00000001,  -0.00000099,  -0.00000001
  8.14316670,  -0.00002118,   0.00002887,  -0.00000025,  -0.00000011,   0.00000228,  -0.00000003,  -0.00000042,  -0.00000068,   0.00000085,   0.00000000,  -0.00000023,  -0.00000000
  8.27633330,  -0.00002118,   0.00002887,  -0.00000026,  -0.00000011,   0.00000228,  -0.00000003,  -0.00000032,  -0.00000030,   0.00000051,  -0.00000000,  -0.00000013,  -0.00000000
  8.40950000,  -0.00002118,   0.00002887,  -0.00000025,  -0.00000011,   0.00000228,  -0.00000003,  -0.00000030,  -0.00000017,   0.00000041,  -0.00000000,  -0.00000010,  -0.00000000
  8.54266670,  -0.00002118,   0.00002887,  -0.00000025,  -0.00000011,   0.00000228,  -0.00000003,  -0.00000030,  -0.00000012,   0.00000038,  -0.00000000,  -0.00000009,  -0.00000000
  8.67583330,  -0.00002118,   0.00002887,  -0.00000026,  -0.00000011,   0.00000228,  -0.00000003,  -0.00000030,  -0.00000010,   0.00000037,  -0.00000000,  -0.00000009,  -0.00000000
  8.80900000,  -0.00002118,   0.00002887,  -0.00000025,  -0.00000011,   0.00000228,  -0.00000003,  -0.00000031,  -0.00000010,   0.00000037,  -0.00000000,  -0.00000009,  -0.00000000
  8.94216670,  -0.00002118,   0.00002887,  -0.00000025,  -0.00000011,   0.00000228,  -0.00000003,  -0.00000031,  -0.00000009,   0.00000036,  -0.00000000,  -0.00000009,  -0.00000000
  9.07533330,  -0.00002118,   0.00002887,  -0.00000025,  -0.00000011,   0.00000228,  -0.00000003,  -0.00000031,  -0.00000008,   0.00000036,  -0.00000000,  -0.00000009,  -0.00000000
  9.20850000,  -0.00002118,   0.00002887,  -0.00000025,  -0.00000011,   0.00000228,  -0.00000003,  -0.00000031,  -0.00000008,   0.00000036,  -0.00000000,  -0.00000009,  -0.00000000
  9.34166670,  -0.00002118,   0.00002887,  -0.00000025,  -0.00000011,   0.00000228,  -0.00000003,  -0.00000031,  -0.00000008,   0.00000036,  -0.00000000,  -0.00000009,  -0.00000000
  9.47483330,  -0.00002118,   0.00002887,  -0.00000025,  -0.00000011,   0.00000228,  -0.00000003,  -0.00000031,  -0.00000008,   0.00000036,  -0.00000000,  -0.00000009,  -0.00000000
  9.60800000,  -0.00002118,   0.00002887,  -0.00000025,  -0.00000011,   0.00000228,  -0.00000003,  -0.00000031,  -0.00000007,   0.00000036,  -0.00000000,  -0.00000009,  -0.00000000
  9.74116670,  -0.00002118,   0.00002887,  -0.00000025,  -0.00000011,   0.00000228,  -0.00000003,  -0.00000031,  -0.00000007,   0.00000036,  -0.00000000,  -0.00000009,  -0.00000000
  9.87433330,  -0.00002118,   0.00002887,  -0.00000025,  -0.00000011,   0.00000228,  -0.00000003,  -0.00000031,  -0.00000007,   0.00000036,  -0.00000000,  -0.00000009,  -0.00000000
 10.00750000,  -0.00002118,   0.00002887,  -0.00000025,  -0.00000011,   0.00000228,  -0.00000003,  -0.00000031,  -0.00000007,   0.00000036,  -0.00000000,  -0.00000009,  -0.00000000
 10.14066700,  -0.00002118,   0.00002887,  -0.00000025,  -0.00000011,   0.00000228,  -0.00000003,  -0.00000031,  -0.00000007,   0.00000035,  -0.00000000,  -0.00000009,  -0.00000000
 10.27383300,  -0.00002118,   0.00002887,  -0.00000025,  -0.00000011,   0.00000228,  -0.00000003,  -0.00000031,  -0.00000006,   0.00000035,  -0.00000000,  -0.00000009,  -0.00000000
 10.40700000,  -0.00002118,   0.00002887,  -0.00000025,  -0.00000011,   0.00000228,  -0.00000003,  -0.00000032,  -0.00000006,   0.00000035,  -0.00000000,  -0.00000009,  -0.00000000
 10.54016700,  -0.00002118,   0.00002887,  -0.00000025,  -0.00000011,   0.00000228,  -0.00000003,  -0.00000032,  -0.00000006,   0.00000035,  -0.00000000,  -0.00000009,  -0.00000000
 10.67333300,  -0.00002118,   0.00002887,  -0.00000025,  -0.00000011,   0.00000228,  -0.00000003,  -0.00000032,  -0.00000006,   0.00000035,  -0.00000000,  -0.00000009,  -0.00000000
 10.80650000,  -0.00002118,   0.00002887,  -0.00000025,  -0.00000011,   0.00000228,  -0.00000003,  -0.00000032,  -0.00000006,   0.00000035,  -0.00000000,  -0.00000009,  -0.00000000
 10.93966700,  -0.00002118,   0.00002887,  -0.00000025,  -0.00000011,   0.00000228,  -0.00000003,  -0.00000032,  -0.00000006,   0.00000035,  -0.00000000,  -0.00000009,  -0.00000000
 11.07283300,  -0.00002118,   0.00002887,  -0.00000025,  -0.00000011,   0.00000228,  -0.00000003,  -0.00000032,  -0.00000006,   0.00000035,  -0.00000000,  -0.00000009,  -0.00000000
 11.20600000,  -0.00002118,   0.00002887,  -0.00000024,  -0.00000011,   0.00000228,  -0.00000003,  -0.00000032,  -0.00000006,   0.00000035,  -0.00000000,  -0.00000009,  -0.00000000
 11.33916700,  -0.00002118,   0.00002887,  -0.00000025,  -0.00000011,   0.00000228,  -0.00000003,  -0.00000032,  -0.00000005,   0.00000035,  -0.00000000,  -0.00000009,  -0.00000000
 11.47233300,  -0.00002118,   0.00002887,  -0.00000025,  -0.00000011,   0.00000228,  -0.00000003,  -0.00000032,  -0.00000005,   0.00000035,  -0.00000000,  -0.00000009,  -0.00000000
 11.60550000,  -0.00002118,   0.00002887,  -0.00000025,  -0.00000011,   0.00000228,  -0.00000003,  -0.00000032,  -0.00000005,   0.00000035,  -0.00000000,  -0.00000009,  -0.00000000
 11.73866700,  -0.00002118,   0.00002887,  -0.00000025,  -0.00000011,   0.00000228,  -0.00000003,  -0.00000032,  -0.00000005,   0.00000034,  -0.00000000,  -0.00000009,  -0.00000000
 11.87183300,  -0.00002118,   0.00002887,  -0.00000025,  -0.00000011,   0.00000228,  -0.00000003,  -0.00000032,  -0.00000005,   0.00000034,  -0.00000000,  -0.00000008,  -0.00000000
 12.00500000,  -0.00002118,   0.00002887,  -0.00000025,  -0.00000011,   0.00000228,  -0.00000003,  -0.00000032,  -0.00000005,   0.00000034,  -0.00000000,  -0.00000008,  -0.00000000
 12.13816700,  -0.00002118,   0.00002887,  -0.00000025,  -0.00000011,   0.00000228,  -0.00000003,  -0.00000031,  -0.00000005,   0.00000034,  -0.00000000,  -0.00000008,  -0.00000000
 12.27133300,  -0.00002118,   0.00002887,  -0.00000025,  -0.00000011,   0.00000228,  -0.00000003,  -0.00000031,  -0.00000005,   0.00000034,  -0.00000000,  -0.00000008,  -0.00000000
 12.40450000,  -0.00002118,   0.00002887,  -0.00000025,  -0.00000011,   0.00000228,  -0.00000003,  -0.00000031,  -0.00000005,   0.00000034,  -0.00000000,  -0.00000008,  -0.00000000
 12.53766700,  -0.00002118,   0.00002887,  -0.00000025,  -0.00000011,   0.00000228,  -0.00000003,  -0.00000031,  -0.00000005,   0.00000034,  -0.00000000,  -0.00000008,  -0.00000000
 12.67083300,  -0.00002118,   0.00002887,  -0.00000025,  -0.00000011,   0.00000228,  -0.00000003,  -0.00000031,  -0.00000005,   0.00000034,  -0.00000000,  -0.00000008,  -0.00000000
 12.80400000,  -0.00002118,   0.00002887,  -0.00000025,  -0.00000011,   0.00000228,  -0.00000003,  -0.00000031,  -0.00000005,   0.00000034,  -0.00000000,  -0.00000008,  -0.00000000
 12.93716700,  -0.00002118,   0.00002887,  -0.00000025,  -0.00000011,   0.00000228,  -0.00000003,  -0.00000031,  -0.00000004,   0.00000034,  -0.00000000,  -0.00000008,  -0.00000000
 13.07033300,  -0.00002118,   0.00002887,  -0.00000025,  -0.00000011,   0.00000228,  -0.00000003,  -0.00000031,  -0.00000004,   0.00000034,  -0.00000000,  -0.00000008,  -0.00000000
 13.20350000,  -0.00002118,   0.00002887,  -0.00000025,  -0.00000011,   0.00000228,  -0.00000003,  -0.00000031,  -0.00000004,   0.00000034,  -0.00000000,  -0.00000008,  -0.00000000
 13.33666700,  -0.00002118,   0.00002887,  -0.00000025,  -0.00000011,   0.00000228,  -0.00000003,  -0.00000031,  -0.00000004,   0.00000033,  -0.00000000,  -0.00000008,  -0.00000000
 13.46983300,  -0.00002118,   0.00002887,  -0.00000025,  -0.00000011,   0.00000228,  -0.00000003,  -0.00000031,  -0.00000004,   0.00000033,  -0.00000000,  -0.00000008,  -0.00000000
 13.60300000,  -0.00002118,   0.00002887,  -0.00000025,  -0.00000011,   0.00000228,  -0.00000003,  -0.00000031,  -0.00000004,   0.00000033,  -0.00000000,  -0.00000008,  -0.00000000
 13.73616700,  -0.00002118,   0.00002887,  -0.00000025,  -0.00000011,   0.00000228,  -0.00000003,  -0.00000031,  -0.00000004,   0.00000033,  -0.00000000,  -0.00000008,  -0.00000000
 13.86933300,  -0.00002118,   0.00002887,  -0.00000025,  -0.00000011,   0.00000228,  -0.00000003,  -0.00000031,  -0.00000004,   0.00000033,  -0.00000000,  -0.00000008,  -0.00000000
 14.00250000,  -0.00002118,   0.00002887,  -0.00000025,  -0.00000011,   0.00000228,  -0.00000003,  -0.00000031,  -0.00000004,   0.00000033,  -0.00000000,  -0.00000008,  -0.00000000
 14.13566700,  -0.00002118,   0.00002887,  -0.00000025,  -0.00000011,   0.00000228,  -0.00000003,  -0.00000031,  -0.00000004,   0.00000033,  -0.00000000,  -0.00000008,  -0.00000000
 14.26883300,  -0.00002118,   0.00002887,  -0.00000025,  -0.00000011,   0.00000228,  -0.00000003,  -0.00000031,  -0.00000004,   0.00000033,  -0.00000000,  -0.00000008,  -0.00000000
 14.40200000,  -0.00002118,   0.00002887,  -0.00000025,  -0.00000011,   0.00000228,  -0.00000003,  -0.00000031,  -0.00000004,   0.00000033,  -0.00000000,  -0.00000008,  -0.00000000
 14.53516700,  -0.00002118,   0.00002887,  -0.00000025,  -0.00000011,   0.00000228,  -0.00000003,  -0.00000031,  -0.00000004,   0.00000033,  -0.00000000,  -0.00000008,  -0.00000000
 14.66833300,  -0.00002118,   0.00002887,  -0.00000025,  -0.00000011,   0.00000228,  -0.00000003,  -0.00000031,  -0.00000004,   0.00000033,  -0.00000000,  -0.00000008,  -0.00000000
 14.80150000,  -0.00002118,   0.00002887,  -0.00000025,  -0.00000011,   0.00000228,  -0.00000003,  -0.00000031,  -0.00000004,   0.00000033,  -0.00000000,  -0.00000008,  -0.00000000
 14.93466700,  -0.00002118,   0.00002887,  -0.00000025,  -0.00000011,   0.00000228,  -0.00000003,  -0.00000031,  -0.00000004,   0.00000032,  -0.00000000,  -0.00000008,  -0.00000000
 15.06783300,  -0.00002118,   0.00002887,  -0.00000025,  -0.00000011,   0.00000228,  -0.00000003,  -0.00000031,  -0.00000003,   0.00000032,  -0.00000000,  -0.00000008,  -0.00000000
 15.20100000,  -0.00002118,   0.00002887,  -0.00000025,  -0.00000011,   0.00000228,  -0.00000003,  -0.00000031,  -0.00000003,   0.00000032,  -0.00000000,  -0.00000008,  -0.00000000
 15.33416700,  -0.00002118,   0.00002887,  -0.00000025,  -0.00000011,   0.00000228,  -0.00000003,  -0.00000031,  -0.00000003,   0.00000032,  -0.00000000,  -0.00000008,  -0.00000000
 15.46733300,  -0.00002118,   0.00002887,  -0.00000025,  -0.00000011,   0.00000228,  -0.00000003,  -0.00000031,  -0.00000003,   0.00000032,  -0.00000000,  -0.00000008,  -0.00000000
 15.60050000,  -0.00002118,   0.00002887,  -0.00000025,  -0.00000011,   0.00000228,  -0.00000003,  -0.00000031,  -0.00000003,   0.00000032,  -0.00000000,  -0.00000008,  -0.00000000
 15.73366700,  -0.00002118,   0.00002887,  -0.00000025,  -0.00000011,   0.00000228,  -0.00000003,  -0.00000031,  -0.00000003,   0.00000032,  -0.00000000,  -0.00000008,  -0.00000000
 15.86683300,  -0.00002118,   0.00002887,  -0.00000025,  -0.00000011,   0.00000228,  -0.00000003,  -0.00000031,  -0.00000003,   0.00000032,  -0.00000000,  -0.00000008,  -0.00000000
 16.00000000,  -0.00002118,   0.00002887,  -0.00000025,  -0.00000011,   0.00000228,  -0.00000003,  -0.00000031,  -0.00000003,   0.00000032,  -0.00000000,  -0.00000008,  -0.00000000
