Time (m)    , Stress_xx (MPa), Stress_yy (MPa), Stress_zz (MPa), Stress_xy (MPa), Stress_xz (MPa), Stress_yz (MPa), Strain_xx   , Strain_yy   , Strain_zz   , Strain_xy   , Strain_xz   , Strain_yz   
  0.00000000,   0.00000000,   0.00000000,   0.00000000,   0.00000000,   0.00000000,   0.00000000,   0.00000000,   0.00000000,   0.00000000,   0.00000000,   0.00000000,   0.00000000
  0.00050000,   0.04999989,  -0.00000007,   0.00000081,   0.00000000,   0.00000001,  -0.00000000,   0.00001130,  -0.00000439,  -0.00000086,   0.00000019,   0.00000006,   0.00000000
  0.00100000,   0.09999970,  -0.00000016,  -0.00000019,   0.00000000,  -0.00000000,   0.00000000,   0.00002340,  -0.00000937,  -0.00000176,   0.00000039,   0.00000013,   0.00000001
  0.00150000,   0.14999910,  -0.00000062,  -0.00000130,  -0.00000000,  -0.00000001,  -0.00000000,   0.00003565,  -0.00001447,  -0.00000266,   0.00000060,   0.00000020,   0.00000001
  0.00200000,   0.19999799,  -0.00000143,  -0.00000264,  -0.00000002,   0.00000001,  -0.00000000,   0.00004796,  -0.00001964,  -0.00000357,   0.00000081,   0.00000027,   0.00000001
  0.00250000,   0.24999792,  -0.00000247,   0.00000427,  -0.00000005,   0.00000006,   0.00000000,   0.00006031,  -0.00002484,  -0.00000447,   0.00000102,   0.00000033,   0.00000001
  0.00300000,   0.29999639,  -0.00000218,  -0.00000208,  -0.00000005,   0.00000002,  -0.00000001,   0.00007267,  -0.00003005,  -0.00000538,   0.00000122,   0.00000040,   0.00000002
  0.00350000,   0.34999588,  -0.00000257,   0.00000644,  -0.00000006,   0.00000014,   0.00000000,   0.00008505,  -0.00003527,  -0.00000628,   0.00000143,   0.00000047,   0.00000002
  0.00400000,   0.39999663,  -0.00000169,  -0.00000159,  -0.00000005,   0.00000001,  -0.00000001,   0.00009743,  -0.00004050,  -0.00000718,   0.00000164,   0.00000054,   0.00000002
  0.00450000,   0.45000339,  -0.00001086,   0.00002970,  -0.00000004,   0.00000051,   0.00000002,   0.00010981,  -0.00004573,  -0.00000809,   0.00000185,   0.00000061,   0.00000002
  0.00500000,   0.49999870,  -0.00000191,  -0.00000130,  -0.00000003,   0.00000001,   0.00000000,   0.00012220,  -0.00005096,  -0.00000899,   0.00000206,   0.00000067,   0.00000003
  0.00550000,   0.54999775,   0.00000055,   0.00000145,  -0.00000002,   0.00000002,   0.00000000,   0.00013459,  -0.00005620,  -0.00000990,   0.00000227,   0.00000074,   0.00000003
  0.00600000,   0.60000688,  -0.00000653,  -0.00003066,   0.00000001,  -0.00000036,  -0.00000000,   0.00014698,  -0.00006144,  -0.00001080,   0.00000247,   0.00000081,   0.00000003
  0.00650000,   0.65000041,  -0.00000100,   0.00000122,  -0.00000000,   0.00000004,   0.00000000,   0.00015937,  -0.00006668,  -0.00001170,   0.00000268,   0.00000088,   0.00000004
  0.00700000,   0.69999896,   0.00000107,  -0.00000146,  -0.00000001,  -0.00000003,  -0.00000000,   0.00017177,  -0.00007192,  -0.00001261,   0.00000289,   0.00000095,   0.00000004
  0.00750000,   0.75000488,  -0.00000672,   0.00000747,  -0.00000001,   0.00000019,   0.00000001,   0.00018416,  -0.00007717,  -0.00001351,   0.00000310,   0.00000102,   0.00000004
  0.00800000,   0.80000034,  -0.00000106,  -0.00000306,  -0.00000002,  -0.00000002,   0.00000000,   0.00019656,  -0.00008241,  -0.00001442,   0.00000331,   0.00000108,   0.00000004
  0.00850000,   0.84999843,   0.00000035,   0.00000445,  -0.00000003,   0.00000006,   0.00000000,   0.00020896,  -0.00008766,  -0.00001532,   0.00000352,   0.00000115,   0.00000005
  0.00900000,   0.90000718,  -0.00000437,  -0.00007534,  -0.00000002,  -0.00000099,   0.00000000,   0.00022137,  -0.00009291,  -0.00001623,   0.00000372,   0.00000122,   0.00000005
  0.00950000,   0.95000051,  -0.00000201,  -0.00000859,  -0.00000002,  -0.00000006,  -0.00000000,   0.00023377,  -0.00009816,  -0.00001713,   0.00000393,   0.00000129,   0.00000005
  0.01000000,   0.99999821,   0.00000017,  -0.00000124,  -0.00000003,  -0.00000001,   0.00000000,   0.00024618,  -0.00010341,  -0.00001804,   0.00000414,   0.00000136,   0.00000005
  0.07658333,   1.00001390,   0.00001154,  -0.00002574,   0.00000020,  -0.00000049,  -0.00000006,   0.00025069,  -0.00010684,  -0.00001845,   0.00000421,   0.00000142,   0.00000005
  0.14316667,   1.00000390,   0.00000369,  -0.00000564,  -0.00000006,  -0.00000012,   0.00000000,   0.00025223,  -0.00010771,  -0.00001878,   0.00000424,   0.00000147,   0.00000005
  0.20975000,   1.00000540,   0.00000509,  -0.00003265,   0.00000000,  -0.00000049,   0.00000000,   0.00025339,  -0.00010829,  -0.00001907,   0.00000426,   0.00000151,   0.00000005
  0.27633333,   1.00000390,   0.00000560,   0.00003837,   0.00000008,   0.00000044,  -0.00000000,   0.00025435,  -0.00010875,  -0.00001931,   0.00000428,   0.00000155,   0.00000005
  0.34291667,   1.00001090,   0.00001026,   0.00001348,   0.00000022,   0.00000006,   0.00000000,   0.00025519,  -0.00010916,  -0.00001953,   0.00000430,   0.00000158,   0.00000005
  0.40950000,   1.00001190,   0.00001140,   0.00001478,   0.00000025,   0.00000000,   0.00000000,   0.00025592,  -0.00010952,  -0.00001970,   0.00000431,   0.00000161,   0.00000005
  0.47608333,   1.00001180,   0.00001102,   0.00000601,   0.00000022,   0.00000020,  -0.00000001,   0.00025658,  -0.00010987,  -0.00001986,   0.00000433,   0.00000163,   0.00000005
  0.54266667,   1.00000870,   0.00000869,   0.00000840,   0.00000017,   0.00000006,  -0.00000000,   0.00025717,  -0.00011019,  -0.00001999,   0.00000434,   0.00000165,   0.00000005
  0.60925000,   1.00002500,   0.00000246,  -0.00000958,   0.00000023,   0.00000152,  -0.00000000,   0.00025771,  -0.00011049,  -0.00002010,   0.00000435,   0.00000167,   0.00000005
  0.67583333,   1.00001010,   0.00000969,   0.00000629,   0.00000020,   0.00000022,  -0.00000001,   0.00025819,  -0.00011078,  -0.00002019,   0.00000436,   0.00000168,   0.00000005
  0.74241667,   1.00001410,   0.00000771,   0.00000578,   0.00000020,   0.00000028,  -0.00000000,   0.00025865,  -0.00011105,  -0.00002027,   0.00000437,   0.00000170,   0.00000005
  0.80900000,   1.00002190,   0.00000605,  -0.00000645,   0.00000025,   0.00000093,  -0.00000000,   0.00025907,  -0.00011132,  -0.00002034,   0.00000437,   0.00000171,   0.00000005
  0.87558333,   1.00002550,   0.00000804,  -0.00001514,   0.00000030,   0.00000125,  -0.00000002,   0.00025946,  -0.00011157,  -0.00002039,   0.00000438,   0.00000172,   0.00000005
  0.94216667,   1.00001950,   0.00001282,   0.00000722,   0.00000032,   0.00000027,  -0.00000001,   0.00025982,  -0.00011181,  -0.00002044,   0.00000439,   0.00000173,   0.00000005
  1.00875000,   1.00002020,   0.00001065,  -0.00000068,   0.00000030,   0.00000025,  -0.00000000,   0.00026016,  -0.00011205,  -0.00002048,   0.00000439,   0.00000174,   0.00000005
  1.07533330,   1.00001950,   0.00000873,  -0.00001841,   0.00000026,   0.00000036,   0.00000000,   0.00026048,  -0.00011227,  -0.00002052,   0.00000440,   0.00000174,   0.00000005
  1.14191670,   1.00001260,   0.00000830,   0.00000442,   0.00000018,   0.00000020,  -0.00000000,   0.00026078,  -0.00011249,  -0.00002055,   0.00000440,   0.00000175,   0.00000005
  1.20850000,   1.00000820,   0.00000615,   0.00000240,   0.00000010,   0.00000003,  -0.00000000,   0.00026106,  -0.00011271,  -0.00002057,   0.00000441,   0.00000175,   0.00000005
  1.27508330,   1.00000750,   0.00000238,  -0.00000643,   0.00000005,   0.00000020,  -0.00000000,   0.00026134,  -0.00011292,  -0.00002060,   0.00000441,   0.00000176,   0.00000005
  1.34166670,   1.00000350,   0.00000224,   0.00000070,   0.00000001,   0.00000008,   0.00000000,   0.00026160,  -0.00011312,  -0.00002061,   0.00000442,   0.00000176,   0.00000005
  1.40825000,   1.00000200,   0.00000164,  -0.00000034,  -0.00000000,   0.00000002,  -0.00000000,   0.00026185,  -0.00011332,  -0.00002063,   0.00000442,   0.00000177,   0.00000005
  1.47483330,   1.00000140,   0.00000124,   0.00000033,   0.00000000,   0.00000003,   0.00000000,   0.00026209,  -0.00011352,  -0.00002064,   0.00000442,   0.00000177,   0.00000005
  1.54141670,   1.00000090,   0.00000157,  -0.00000076,   0.00000002,  -0.00000003,  -0.00000000,   0.00026233,  -0.00011371,  -0.00002066,   0.00000443,   0.00000177,   0.00000005
  1.60800000,   1.00000110,   0.00000147,   0.00000022,   0.00000003,   0.00000001,   0.00000000,   0.00026256,  -0.00011389,  -0.00002067,   0.00000443,   0.00000178,   0.00000005
  1.67458330,   1.00000100,   0.00000184,  -0.00000049,   0.00000004,  -0.00000003,  -0.00000000,   0.00026278,  -0.00011408,  -0.00002068,   0.00000444,   0.00000178,   0.00000005
  1.74116670,   1.00000120,   0.00000177,   0.00000024,   0.00000004,  -0.00000000,   0.00000000,   0.00026299,  -0.00011425,  -0.00002068,   0.00000444,   0.00000178,   0.00000005
  1.80775000,   0.99999367,   0.00000624,   0.00009346,   0.00000004,   0.00000099,  -0.00000001,   0.00026320,  -0.00011443,  -0.00002068,   0.00000444,   0.00000178,   0.00000005
  1.87433330,   1.00000170,   0.00000304,   0.00000438,   0.00000005,  -0.00000008,  -0.00000001,   0.00026341,  -0.00011460,  -0.00002070,   0.00000445,   0.00000178,   0.00000005
  1.94091670,   1.00000240,   0.00000187,   0.00000137,   0.00000005,   0.00000004,  -0.00000000,   0.00026361,  -0.00011477,  -0.00002070,   0.00000445,   0.00000179,   0.00000005
  2.00750000,   1.00000170,   0.00000169,   0.00000186,   0.00000003,   0.00000005,  -0.00000000,   0.00026381,  -0.00011494,  -0.00002071,   0.00000445,   0.00000179,   0.00000005
  2.07408330,   0.99999583,   0.00000588,   0.00003925,   0.00000001,   0.00000032,   0.00000000,   0.00026400,  -0.00011510,  -0.00002071,   0.00000446,   0.00000179,   0.00000005
  2.14066670,   1.00000080,   0.00000209,  -0.00000206,   0.00000001,  -0.00000009,  -0.00000000,   0.00026419,  -0.00011526,  -0.00002071,   0.00000446,   0.00000179,   0.00000005
  2.20725000,   1.00000080,   0.00000094,   0.00000110,   0.00000000,   0.00000003,  -0.00000000,   0.00026437,  -0.00011542,  -0.00002072,   0.00000446,   0.00000179,   0.00000005
  2.27383330,   0.99999592,   0.00000574,   0.00000908,  -0.00000001,  -0.00000009,  -0.00000000,   0.00026455,  -0.00011557,  -0.00002072,   0.00000446,   0.00000180,   0.00000005
  2.34041670,   1.00000000,   0.00000157,  -0.00000311,  -0.00000001,  -0.00000010,  -0.00000000,   0.00026473,  -0.00011572,  -0.00002072,   0.00000447,   0.00000180,   0.00000005
  2.40700000,   1.00000030,   0.00000054,   0.00000183,  -0.00000000,   0.00000004,  -0.00000000,   0.00026491,  -0.00011587,  -0.00002073,   0.00000447,   0.00000180,   0.00000005
  2.47358330,   0.99999676,   0.00000559,  -0.00001823,  -0.00000001,  -0.00000044,   0.00000000,   0.00026508,  -0.00011602,  -0.00002073,   0.00000447,   0.00000180,   0.00000005
  2.54016670,   0.99999966,   0.00000135,   0.00000044,  -0.00000000,  -0.00000004,   0.00000000,   0.00026525,  -0.00011617,  -0.00002073,   0.00000447,   0.00000180,   0.00000005
  2.60675000,   1.00000020,   0.00000069,  -0.00000382,  -0.00000000,  -0.00000005,  -0.00000000,   0.00026541,  -0.00011631,  -0.00002073,   0.00000448,   0.00000180,   0.00000005
  2.67333330,   0.99999474,   0.00000381,   0.00004845,  -0.00000001,   0.00000059,   0.00000000,   0.00026557,  -0.00011645,  -0.00002073,   0.00000448,   0.00000180,   0.00000005
  2.73991670,   0.99999918,   0.00000114,   0.00001236,  -0.00000000,   0.00000012,   0.00000001,   0.00026574,  -0.00011659,  -0.00002074,   0.00000448,   0.00000180,   0.00000005
  2.80650000,   1.00000010,   0.00000051,   0.00000136,   0.00000000,   0.00000002,   0.00000000,   0.00026589,  -0.00011672,  -0.00002074,   0.00000448,   0.00000181,   0.00000005
  2.87308330,   0.99999972,   0.00000054,   0.00000205,  -0.00000000,   0.00000004,   0.00000000,   0.00026605,  -0.00011686,  -0.00002074,   0.00000449,   0.00000181,   0.00000005
  2.93966670,   0.99999718,   0.00000408,  -0.00001202,  -0.00000001,  -0.00000025,   0.00000000,   0.00026620,  -0.00011699,  -0.00002074,   0.00000449,   0.00000181,   0.00000005
  3.00625000,   0.99999939,   0.00000102,  -0.00000017,  -0.00000001,  -0.00000002,   0.00000000,   0.00026635,  -0.00011712,  -0.00002074,   0.00000449,   0.00000181,   0.00000005
  3.07283330,   0.99999977,   0.00000058,  -0.00000396,  -0.00000001,  -0.00000006,   0.00000000,   0.00026650,  -0.00011724,  -0.00002075,   0.00000449,   0.00000181,   0.00000006
  3.13941670,   0.99999532,   0.00000313,   0.00003740,  -0.00000002,   0.00000049,   0.00000000,   0.00026664,  -0.00011737,  -0.00002075,   0.00000450,   0.00000181,   0.00000006
  3.20600000,   0.99999896,   0.00000095,   0.00000983,  -0.00000001,   0.00000012,   0.00000001,   0.00026679,  -0.00011749,  -0.00002075,   0.00000450,   0.00000181,   0.00000006
  3.27258330,   1.00000090,   0.00000045,  -0.00002032,  -0.00000001,  -0.00000029,   0.00000001,   0.00026693,  -0.00011761,  -0.00002075,   0.00000450,   0.00000181,   0.00000006
  3.33916670,   1.00000030,   0.00000003,  -0.00000278,  -0.00000001,  -0.00000002,   0.00000000,   0.00026707,  -0.00011773,  -0.00002075,   0.00000450,   0.00000181,   0.00000006
  3.40575000,   0.99999914,   0.00000537,  -0.00007253,  -0.00000002,  -0.00000112,   0.00000001,   0.00026721,  -0.00011785,  -0.00002076,   0.00000451,   0.00000182,   0.00000006
  3.47233330,   0.99999930,   0.00000113,  -0.00000060,  -0.00000001,  -0.00000003,   0.00000000,   0.00026734,  -0.00011797,  -0.00002076,   0.00000451,   0.00000182,   0.00000006
  3.53891670,   0.99999976,   0.00000043,  -0.00000189,  -0.00000001,  -0.00000002,   0.00000000,   0.00026747,  -0.00011808,  -0.00002076,   0.00000451,   0.00000182,   0.00000006
  3.60550000,   0.99999625,   0.00000342,   0.00001209,  -0.00000002,   0.00000012,   0.00000000,   0.00026760,  -0.00011819,  -0.00002076,   0.00000451,   0.00000182,   0.00000006
  3.67208330,   0.99999922,   0.00000101,  -0.00000270,  -0.00000001,  -0.00000006,   0.00000000,   0.00026773,  -0.00011830,  -0.00002076,   0.00000451,   0.00000182,   0.00000006
  3.73866670,   0.99999345,   0.00000253,   0.00008101,  -0.00000002,   0.00000113,  -0.00000000,   0.00026786,  -0.00011841,  -0.00002076,   0.00000452,   0.00000182,   0.00000006
  3.80525000,   0.99999812,   0.00000066,   0.00002747,  -0.00000001,   0.00000038,  -0.00000000,   0.00026798,  -0.00011852,  -0.00002076,   0.00000452,   0.00000182,   0.00000006
  3.87183330,   1.00000090,   0.00000054,  -0.00002571,  -0.00000001,  -0.00000037,  -0.00000000,   0.00026811,  -0.00011862,  -0.00002077,   0.00000452,   0.00000182,   0.00000006
  3.93841670,   1.00000030,   0.00000019,  -0.00001058,  -0.00000001,  -0.00000014,  -0.00000000,   0.00026823,  -0.00011873,  -0.00002077,   0.00000452,   0.00000182,   0.00000006
  4.00500000,   0.99999944,   0.00000051,  -0.00000510,  -0.00000002,  -0.00000007,   0.00000000,   0.00026835,  -0.00011883,  -0.00002077,   0.00000452,   0.00000183,   0.00000006
  4.07158330,   0.99999745,   0.00000272,  -0.00000538,  -0.00000002,  -0.00000009,  -0.00000001,   0.00026847,  -0.00011893,  -0.00002077,   0.00000453,   0.00000183,   0.00000006
  4.13816670,   0.99999913,   0.00000076,  -0.00000354,  -0.00000002,  -0.00000005,   0.00000000,   0.00026859,  -0.00011903,  -0.00002078,   0.00000453,   0.00000183,   0.00000006
  4.20475000,   0.99999909,   0.00000025,   0.00000339,  -0.00000002,   0.00000005,   0.00000000,   0.00026870,  -0.00011913,  -0.00002078,   0.00000453,   0.00000183,   0.00000006
  4.27133330,   0.99999876,   0.00000400,  -0.00005501,  -0.00000002,  -0.00000084,   0.00000001,   0.00026881,  -0.00011922,  -0.00002078,   0.00000453,   0.00000183,   0.00000006
  4.33791670,   0.99999906,   0.00000089,  -0.00000333,  -0.00000002,  -0.00000006,   0.00000001,   0.00026892,  -0.00011932,  -0.00002078,   0.00000453,   0.00000183,   0.00000006
  4.40450000,   0.99999955,  -0.00000013,   0.00000545,  -0.00000001,   0.00000009,   0.00000000,   0.00026903,  -0.00011941,  -0.00002078,   0.00000453,   0.00000183,   0.00000006
  4.47108330,   0.99999934,   0.00000043,  -0.00000281,  -0.00000002,  -0.00000004,   0.00000000,   0.00026914,  -0.00011951,  -0.00002079,   0.00000454,   0.00000183,   0.00000006
  4.53766670,   0.99999574,   0.00000143,   0.00004913,  -0.00000002,   0.00000071,   0.00000000,   0.00026925,  -0.00011960,  -0.00002079,   0.00000454,   0.00000183,   0.00000006
  4.60425000,   0.99999908,   0.00000077,  -0.00000268,  -0.00000002,  -0.00000004,   0.00000000,   0.00026936,  -0.00011968,  -0.00002079,   0.00000454,   0.00000183,   0.00000006
  4.67083330,   0.99999923,   0.00000031,  -0.00000037,  -0.00000002,   0.00000000,   0.00000000,   0.00026946,  -0.00011977,  -0.00002079,   0.00000454,   0.00000183,   0.00000006
  4.73741670,   0.99999754,   0.00000297,  -0.00001416,  -0.00000002,  -0.00000024,  -0.00000000,   0.00026956,  -0.00011986,  -0.00002079,   0.00000454,   0.00000184,   0.00000006
  4.80400000,   0.99999881,   0.00000069,   0.00000180,  -0.00000002,   0.00000002,   0.00000000,   0.00026966,  -0.00011994,  -0.00002080,   0.00000454,   0.00000184,   0.00000006
  4.87058330,   0.99999925,   0.00000033,  -0.00000294,  -0.00000002,  -0.00000004,   0.00000000,   0.00026976,  -0.00012003,  -0.00002080,   0.00000455,   0.00000184,   0.00000006
  4.93716670,   0.99999597,   0.00000191,   0.00003231,  -0.00000002,   0.00000046,   0.00000000,   0.00026986,  -0.00012011,  -0.00002080,   0.00000455,   0.00000184,   0.00000006
  5.00375000,   0.99999838,   0.00000052,   0.00001220,  -0.00000002,   0.00000017,   0.00000000,   0.00026996,  -0.00012019,  -0.00002080,   0.00000455,   0.00000184,   0.00000006
  5.07033330,   0.99999906,   0.00000030,   0.00000128,  -0.00000002,   0.00000002,   0.00000000,   0.00027005,  -0.00012027,  -0.00002080,   0.00000455,   0.00000184,   0.00000006
  5.13691670,   0.99999891,   0.00000029,   0.00000149,  -0.00000002,   0.00000003,   0.00000000,   0.00027015,  -0.00012035,  -0.00002081,   0.00000455,   0.00000184,   0.00000006
  5.20350000,   0.99999779,   0.00000240,  -0.00001384,  -0.00000002,  -0.00000022,   0.00000000,   0.00027024,  -0.00012043,  -0.00002081,   0.00000455,   0.00000184,   0.00000006
  5.27008330,   0.99999880,   0.00000059,  -0.00000045,  -0.00000002,  -0.00000001,   0.00000000,   0.00027033,  -0.00012051,  -0.00002081,   0.00000456,   0.00000184,   0.00000006
  5.33666670,   0.99999915,   0.00000415,  -0.00006815,  -0.00000002,  -0.00000103,  -0.00000000,   0.00027042,  -0.00012058,  -0.00002082,   0.00000456,   0.00000184,   0.00000006
  5.40325000,   0.99999978,   0.00000141,  -0.00002922,  -0.00000002,  -0.00000045,  -0.00000000,   0.00027051,  -0.00012066,  -0.00002082,   0.00000456,   0.00000184,   0.00000006
  5.46983330,   0.99999872,  -0.00000041,   0.00002163,  -0.00000002,   0.00000033,  -0.00000000,   0.00027060,  -0.00012073,  -0.00002082,   0.00000456,   0.00000184,   0.00000006
  5.53641670,   0.99999930,   0.00000001,   0.00000140,  -0.00000002,   0.00000005,   0.00000000,   0.00027069,  -0.00012080,  -0.00002082,   0.00000456,   0.00000184,   0.00000006
  5.60300000,   0.99999895,   0.00000031,  -0.00000021,  -0.00000002,   0.00000000,   0.00000000,   0.00027077,  -0.00012088,  -0.00002082,   0.00000456,   0.00000185,   0.00000006
  5.66958330,   0.99999740,   0.00000176,   0.00000362,  -0.00000003,   0.00000007,   0.00000001,   0.00027086,  -0.00012095,  -0.00002082,   0.00000456,   0.00000185,   0.00000006
  5.73616670,   0.99999885,   0.00000059,  -0.00000325,  -0.00000002,  -0.00000005,   0.00000000,   0.00027094,  -0.00012101,  -0.00002083,   0.00000457,   0.00000185,   0.00000006
  5.80275000,   0.99999889,   0.00000024,   0.00000014,  -0.00000002,   0.00000001,   0.00000000,   0.00027102,  -0.00012108,  -0.00002083,   0.00000457,   0.00000185,   0.00000006
  5.86933330,   0.99999807,   0.00000247,  -0.00002291,  -0.00000002,  -0.00000035,   0.00000000,   0.00027110,  -0.00012115,  -0.00002083,   0.00000457,   0.00000185,   0.00000005
  5.93591670,   0.99999889,   0.00000074,  -0.00000640,  -0.00000002,  -0.00000010,  -0.00000000,   0.00027118,  -0.00012122,  -0.00002083,   0.00000457,   0.00000185,   0.00000005
  6.00250000,   0.99999901,   0.00000036,  -0.00000319,  -0.00000002,  -0.00000004,   0.00000000,   0.00027126,  -0.00012128,  -0.00002084,   0.00000457,   0.00000185,   0.00000005
  6.06908330,   0.99999760,   0.00000209,  -0.00000598,  -0.00000002,  -0.00000011,  -0.00000001,   0.00027134,  -0.00012135,  -0.00002084,   0.00000457,   0.00000185,   0.00000005
  6.13566670,   0.99999856,   0.00000049,   0.00000426,  -0.00000002,   0.00000006,   0.00000000,   0.00027142,  -0.00012141,  -0.00002084,   0.00000457,   0.00000185,   0.00000005
  6.20225000,   0.99999901,   0.00000031,  -0.00000318,  -0.00000002,  -0.00000004,  -0.00000000,   0.00027149,  -0.00012147,  -0.00002084,   0.00000458,   0.00000185,   0.00000005
  6.26883330,   0.99999586,   0.00000093,   0.00004582,  -0.00000002,   0.00000067,   0.00000000,   0.00027157,  -0.00012154,  -0.00002084,   0.00000458,   0.00000185,   0.00000005
  6.33541670,   0.99999840,   0.00000050,   0.00000595,  -0.00000002,   0.00000010,   0.00000000,   0.00027164,  -0.00012160,  -0.00002085,   0.00000458,   0.00000185,   0.00000005
  6.40200000,   0.99999886,   0.00000027,  -0.00000022,  -0.00000002,  -0.00000000,  -0.00000000,   0.00027172,  -0.00012166,  -0.00002085,   0.00000458,   0.00000185,   0.00000005
  6.46858330,   0.99999869,   0.00000024,   0.00000141,  -0.00000002,   0.00000003,  -0.00000000,   0.00027179,  -0.00012172,  -0.00002085,   0.00000458,   0.00000185,   0.00000005
  6.53516670,   0.99999827,   0.00000198,  -0.00002076,  -0.00000002,  -0.00000032,  -0.00000000,   0.00027186,  -0.00012177,  -0.00002086,   0.00000458,   0.00000186,   0.00000005
  6.60175000,   0.99999888,   0.00000063,  -0.00000760,  -0.00000002,  -0.00000012,  -0.00000000,   0.00027193,  -0.00012183,  -0.00002086,   0.00000458,   0.00000186,   0.00000005
  6.66833330,   0.99999862,  -0.00000013,   0.00001051,  -0.00000002,   0.00000016,  -0.00000000,   0.00027200,  -0.00012189,  -0.00002086,   0.00000458,   0.00000186,   0.00000005
  6.73491670,   0.99999892,   0.00000004,   0.00000147,  -0.00000002,   0.00000004,  -0.00000000,   0.00027207,  -0.00012194,  -0.00002086,   0.00000459,   0.00000186,   0.00000005
  6.80150000,   0.99999656,   0.00000101,   0.00003102,  -0.00000002,   0.00000042,  -0.00000001,   0.00027213,  -0.00012200,  -0.00002086,   0.00000459,   0.00000186,   0.00000005
  6.86808330,   0.99999873,   0.00000059,  -0.00000277,  -0.00000002,  -0.00000005,  -0.00000000,   0.00027220,  -0.00012205,  -0.00002087,   0.00000459,   0.00000186,   0.00000005
  6.93466670,   0.99999883,   0.00000025,  -0.00000057,  -0.00000002,  -0.00000000,  -0.00000000,   0.00027227,  -0.00012211,  -0.00002087,   0.00000459,   0.00000186,   0.00000005
  7.00125000,   0.99999799,   0.00000190,  -0.00001348,  -0.00000002,  -0.00000021,   0.00000000,   0.00027233,  -0.00012216,  -0.00002087,   0.00000459,   0.00000186,   0.00000005
  7.06783330,   0.99999857,   0.00000047,   0.00000044,  -0.00000002,   0.00000000,  -0.00000000,   0.00027240,  -0.00012221,  -0.00002087,   0.00000459,   0.00000186,   0.00000005
  7.13441670,   0.99999978,   0.00000345,  -0.00007470,  -0.00000002,  -0.00000110,   0.00000001,   0.00027246,  -0.00012226,  -0.00002088,   0.00000459,   0.00000186,   0.00000005
  7.20100000,   0.99999895,   0.00000078,  -0.00001146,  -0.00000002,  -0.00000018,  -0.00000000,   0.00027252,  -0.00012231,  -0.00002088,   0.00000459,   0.00000186,   0.00000005
  7.26758330,   0.99999822,  -0.00000049,   0.00002448,  -0.00000002,   0.00000035,  -0.00000001,   0.00027259,  -0.00012237,  -0.00002088,   0.00000459,   0.00000186,   0.00000005
  7.33416670,   0.99999882,   0.00000029,  -0.00000288,  -0.00000002,  -0.00000004,  -0.00000000,   0.00027265,  -0.00012241,  -0.00002088,   0.00000460,   0.00000186,   0.00000005
  7.40075000,   0.99999859,   0.00000027,  -0.00000030,  -0.00000002,  -0.00000000,  -0.00000000,   0.00027271,  -0.00012246,  -0.00002089,   0.00000460,   0.00000186,   0.00000005
  7.46733330,   0.99999827,   0.00000156,  -0.00001695,  -0.00000002,  -0.00000025,   0.00000000,   0.00027277,  -0.00012251,  -0.00002089,   0.00000460,   0.00000186,   0.00000005
  7.53391670,   0.99999849,   0.00000035,   0.00000069,  -0.00000002,   0.00000001,  -0.00000000,   0.00027283,  -0.00012256,  -0.00002089,   0.00000460,   0.00000187,   0.00000005
  7.60050000,   0.99999871,   0.00000023,  -0.00000213,  -0.00000002,  -0.00000003,  -0.00000000,   0.00027289,  -0.00012261,  -0.00002089,   0.00000460,   0.00000187,   0.00000005
  7.66708330,   0.99999705,   0.00000095,   0.00001787,  -0.00000002,   0.00000025,  -0.00000000,   0.00027294,  -0.00012265,  -0.00002090,   0.00000460,   0.00000187,   0.00000005
  7.73366670,   0.99999858,   0.00000046,  -0.00000202,  -0.00000002,  -0.00000003,  -0.00000000,   0.00027300,  -0.00012270,  -0.00002090,   0.00000460,   0.00000187,   0.00000005
  7.80025000,   0.99999419,  -0.00000051,   0.00010024,  -0.00000002,   0.00000145,  -0.00000001,   0.00027305,  -0.00012274,  -0.00002090,   0.00000460,   0.00000187,   0.00000005
  7.86683330,   0.99999810,   0.00000017,   0.00001416,  -0.00000002,   0.00000019,  -0.00000001,   0.00027311,  -0.00012279,  -0.00002090,   0.00000460,   0.00000187,   0.00000005
  7.93341670,   0.99999927,   0.00000030,  -0.00001099,  -0.00000002,  -0.00000017,  -0.00000000,   0.00027317,  -0.00012283,  -0.00002091,   0.00000460,   0.00000187,   0.00000005
  8.00000000,   0.99999863,   0.00000023,   0.00000067,  -0.00000002,   0.00000001,  -0.00000000,   0.00027322,  -0.00012287,  -0.00002091,   0.00000460,   0.00000187,   0.00000005
  8.00025000,   0.97500677,  -0.00000043,   0.00001696,   0.00000001,   0.00000031,  -0.00000001,   0.00026786,  -0.00012086,  -0.00002049,   0.00000451,   0.00000184,   0.00000005
  8.00050000,   0.95000427,   0.00000543,   0.00001879,   0.00000006,   0.00000020,  -0.00000003,   0.00026197,  -0.00011851,  -0.00002005,   0.00000441,   0.00000181,   0.00000005
  8.00075000,   0.92500806,   0.00001179,  -0.00001252,   0.00000023,  -0.00000022,  -0.00000001,   0.00025596,  -0.00011605,  -0.00001960,   0.00000431,   0.00000177,   0.00000005
  8.00100000,   0.90001435,   0.00000039,   0.00000422,   0.00000018,   0.00000009,  -0.00000002,   0.00024988,  -0.00011355,  -0.00001915,   0.00000421,   0.00000174,   0.00000005
  8.00125000,   0.87500977,   0.00000521,   0.00000907,   0.00000016,   0.00000001,   0.00000001,   0.00024376,  -0.00011100,  -0.00001870,   0.00000411,   0.00000171,   0.00000005
  8.00150000,   0.85000774,   0.00000403,   0.00002095,   0.00000014,   0.00000020,  -0.00000000,   0.00023762,  -0.00010844,  -0.00001824,   0.00000400,   0.00000167,   0.00000005
  8.00175000,   0.82500742,   0.00000269,  -0.00001012,   0.00000010,  -0.00000020,   0.00000001,   0.00023146,  -0.00010585,  -0.00001779,   0.00000390,   0.00000164,   0.00000005
  8.00200000,   0.80000391,   0.00000057,   0.00000535,   0.00000004,   0.00000004,   0.00000000,   0.00022529,  -0.00010326,  -0.00001734,   0.00000379,   0.00000160,   0.00000005
  8.00225000,   0.77500186,  -0.00000029,  -0.00000708,  -0.00000000,  -0.00000010,   0.00000000,   0.00021911,  -0.00010066,  -0.00001689,   0.00000369,   0.00000157,   0.00000004
  8.00250000,   0.74999933,  -0.00000117,   0.00000349,  -0.00000003,   0.00000006,   0.00000000,   0.00021292,  -0.00009805,  -0.00001644,   0.00000359,   0.00000154,   0.00000004
  8.00275000,   0.72499372,   0.00000963,  -0.00007201,  -0.00000005,  -0.00000104,  -0.00000000,   0.00020674,  -0.00009544,  -0.00001599,   0.00000348,   0.00000150,   0.00000004
  8.00300000,   0.69999651,   0.00000005,   0.00000142,  -0.00000004,   0.00000003,   0.00000000,   0.00020055,  -0.00009283,  -0.00001553,   0.00000338,   0.00000147,   0.00000004
  8.00325000,   0.67499823,  -0.00000038,   0.00000050,  -0.00000002,   0.00000002,   0.00000000,   0.00019437,  -0.00009022,  -0.00001508,   0.00000327,   0.00000143,   0.00000004
  8.00350000,   0.64999946,  -0.00000054,   0.00000085,  -0.00000002,   0.00000003,   0.00000001,   0.00018818,  -0.00008761,  -0.00001463,   0.00000317,   0.00000140,   0.00000004
  8.00375000,   0.62499584,  -0.00000240,   0.00000686,  -0.00000006,   0.00000014,  -0.00000000,   0.00018199,  -0.00008500,  -0.00001418,   0.00000307,   0.00000137,   0.00000004
  8.00400000,   0.59999577,  -0.00000274,  -0.00000859,  -0.00000007,  -0.00000008,   0.00000000,   0.00017580,  -0.00008238,  -0.00001373,   0.00000296,   0.00000133,   0.00000003
  8.00425000,   0.57499823,  -0.00000065,  -0.00001227,  -0.00000003,  -0.00000016,  -0.00000001,   0.00016961,  -0.00007977,  -0.00001327,   0.00000286,   0.00000130,   0.00000003
  8.00450000,   0.54999919,   0.00000092,  -0.00001057,  -0.00000002,  -0.00000015,  -0.00000000,   0.00016342,  -0.00007715,  -0.00001282,   0.00000275,   0.00000126,   0.00000003
  8.00475000,   0.52500000,   0.00000073,   0.00000130,  -0.00000002,   0.00000002,   0.00000000,   0.00015723,  -0.00007454,  -0.00001237,   0.00000265,   0.00000123,   0.00000003
  8.00500000,   0.49999906,   0.00000007,   0.00000801,  -0.00000002,   0.00000012,  -0.00000000,   0.00015103,  -0.00007192,  -0.00001192,   0.00000255,   0.00000119,   0.00000003
  8.00525000,   0.47499982,   0.00000053,  -0.00000985,  -0.00000002,  -0.00000014,  -0.00000001,   0.00014484,  -0.00006930,  -0.00001147,   0.00000244,   0.00000116,   0.00000003
  8.00550000,   0.44999930,   0.00000023,   0.00000087,  -0.00000001,   0.00000001,  -0.00000000,   0.00013864,  -0.00006668,  -0.00001101,   0.00000234,   0.00000113,   0.00000002
  8.00575000,   0.42499920,   0.00000009,   0.00000459,  -0.00000001,   0.00000007,  -0.00000001,   0.00013245,  -0.00006406,  -0.00001056,   0.00000223,   0.00000109,   0.00000002
  8.00600000,   0.39999940,   0.00000021,   0.00000196,  -0.00000002,   0.00000003,  -0.00000000,   0.00012625,  -0.00006144,  -0.00001011,   0.00000213,   0.00000106,   0.00000002
  8.00625000,   0.37499925,   0.00000007,   0.00000616,  -0.00000002,   0.00000009,  -0.00000001,   0.00012006,  -0.00005883,  -0.00000966,   0.00000203,   0.00000102,   0.00000002
  8.00650000,   0.34999948,   0.00000021,   0.00000193,  -0.00000002,   0.00000003,  -0.00000000,   0.00011386,  -0.00005621,  -0.00000921,   0.00000192,   0.00000099,   0.00000002
  8.00675000,   0.32499922,   0.00000001,   0.00000181,  -0.00000002,   0.00000003,  -0.00000000,   0.00010767,  -0.00005358,  -0.00000875,   0.00000182,   0.00000096,   0.00000002
  8.00700000,   0.29999951,   0.00000005,  -0.00000171,  -0.00000002,  -0.00000002,  -0.00000000,   0.00010147,  -0.00005096,  -0.00000830,   0.00000171,   0.00000092,   0.00000002
  8.00725000,   0.27499948,   0.00000015,   0.00000120,  -0.00000002,   0.00000002,  -0.00000000,   0.00009527,  -0.00004834,  -0.00000785,   0.00000161,   0.00000089,   0.00000002
  8.00750000,   0.24999932,   0.00000005,  -0.00000278,  -0.00000003,  -0.00000003,  -0.00000000,   0.00008907,  -0.00004572,  -0.00000740,   0.00000150,   0.00000085,   0.00000001
  8.00775000,   0.22499964,   0.00000019,   0.00000265,  -0.00000002,   0.00000004,  -0.00000000,   0.00008287,  -0.00004310,  -0.00000694,   0.00000140,   0.00000082,   0.00000001
  8.00800000,   0.19999955,   0.00000011,   0.00000451,  -0.00000002,   0.00000007,  -0.00000000,   0.00007667,  -0.00004047,  -0.00000649,   0.00000130,   0.00000079,   0.00000001
  8.00825000,   0.17499966,   0.00000016,   0.00000295,  -0.00000002,   0.00000005,  -0.00000000,   0.00007047,  -0.00003785,  -0.00000604,   0.00000119,   0.00000075,   0.00000001
  8.00850000,   0.14999982,   0.00000024,   0.00000014,  -0.00000002,   0.00000001,  -0.00000000,   0.00006427,  -0.00003523,  -0.00000559,   0.00000109,   0.00000072,   0.00000001
  8.00875000,   0.12499992,   0.00000021,   0.00000087,  -0.00000002,   0.00000002,  -0.00000000,   0.00005807,  -0.00003260,  -0.00000514,   0.00000098,   0.00000068,   0.00000001
  8.00900000,   0.09999984,   0.00000021,   0.00000118,  -0.00000002,   0.00000002,  -0.00000000,   0.00005187,  -0.00002998,  -0.00000468,   0.00000088,   0.00000065,   0.00000001
  8.00925000,   0.07499978,   0.00000015,   0.00000324,  -0.00000002,   0.00000005,  -0.00000000,   0.00004567,  -0.00002735,  -0.00000423,   0.00000077,   0.00000061,   0.00000000
  8.00950000,   0.04999994,   0.00000023,   0.00000047,  -0.00000002,   0.00000001,  -0.00000000,   0.00003947,  -0.00002473,  -0.00000378,   0.00000067,   0.00000058,   0.00000000
  8.00975000,   0.02499996,   0.00000022,   0.00000086,  -0.00000002,   0.00000002,  -0.00000000,   0.00003326,  -0.00002210,  -0.00000333,   0.00000057,   0.00000055,   0.00000000
  8.01000000,  -0.00000000,   0.00000023,   0.00000076,  -0.00000002,   0.00000002,  -0.00000000,   0.00002706,  -0.00001947,  -0.00000287,   0.00000046,   0.00000051,   0.00000000
  8.14316670,   0.00000001,   0.00000024,   0.00000023,  -0.00000002,   0.00000001,  -0.00000000,   0.00002123,  -0.00001533,  -0.00000215,   0.00000037,   0.00000040,   0.00000000
  8.27633330,  -0.00000001,   0.00000023,   0.00000079,  -0.00000002,   0.00000002,  -0.00000000,   0.00001925,  -0.00001436,  -0.00000165,   0.00000033,   0.00000033,   0.00000000
  8.40950000,  -0.00000000,   0.00000023,   0.00000077,  -0.00000002,   0.00000002,  -0.00000000,   0.00001780,  -0.00001366,  -0.00000128,   0.00000030,   0.00000027,   0.00000000
  8.54266670,  -0.00000000,   0.00000023,   0.00000071,  -0.00000002,   0.00000001,  -0.00000000,   0.00001665,  -0.00001307,  -0.00000100,   0.00000028,   0.00000023,   0.00000000
  8.67583330,  -0.00000000,   0.00000023,   0.00000076,  -0.00000002,   0.00000002,  -0.00000000,   0.00001572,  -0.00001255,  -0.00000080,   0.00000026,   0.00000020,   0.00000000
  8.80900000,  -0.00000000,   0.00000023,   0.00000073,  -0.00000002,   0.00000001,  -0.00000000,   0.00001493,  -0.00001209,  -0.00000065,   0.00000024,   0.00000017,   0.00000000
  8.94216670,  -0.00000000,   0.00000023,   0.00000078,  -0.00000002,   0.00000002,  -0.00000000,   0.00001426,  -0.00001166,  -0.00000055,   0.00000023,   0.00000016,   0.00000000
  9.07533330,  -0.00000000,   0.00000023,   0.00000077,  -0.00000002,   0.00000002,  -0.00000000,   0.00001368,  -0.00001127,  -0.00000047,   0.00000022,   0.00000014,   0.00000000
  9.20850000,  -0.00000000,   0.00000023,   0.00000078,  -0.00000002,   0.00000002,  -0.00000000,   0.00001316,  -0.00001090,  -0.00000041,   0.00000021,   0.00000013,   0.00000000
  9.34166670,  -0.00000001,   0.00000023,   0.00000079,  -0.00000002,   0.00000002,  -0.00000000,   0.00001270,  -0.00001056,  -0.00000037,   0.00000021,   0.00000012,   0.00000000
  9.47483330,  -0.00000000,   0.00000023,   0.00000076,  -0.00000002,   0.00000002,  -0.00000000,   0.00001228,  -0.00001023,  -0.00000034,   0.00000020,   0.00000012,   0.00000000
  9.60800000,  -0.00000000,   0.00000023,   0.00000074,  -0.00000002,   0.00000002,  -0.00000000,   0.00001189,  -0.00000991,  -0.00000032,   0.00000019,   0.00000011,   0.00000000
  9.74116670,  -0.00000001,   0.00000023,   0.00000076,  -0.00000002,   0.00000002,  -0.00000000,   0.00001153,  -0.00000962,  -0.00000031,   0.00000019,   0.00000011,   0.00000000
  9.87433330,  -0.00000001,   0.00000023,   0.00000075,  -0.00000002,   0.00000002,  -0.00000000,   0.00001119,  -0.00000933,  -0.00000030,   0.00000018,   0.00000010,   0.00000000
 10.00750000,  -0.00000001,   0.00000022,   0.00000083,  -0.00000002,   0.00000002,  -0.00000000,   0.00001086,  -0.00000905,  -0.00000029,   0.00000017,   0.00000010,   0.00000000
 10.14066700,  -0.00000001,   0.00000022,   0.00000080,  -0.00000002,   0.00000002,  -0.00000000,   0.00001056,  -0.00000879,  -0.00000028,   0.00000017,   0.00000010,   0.00000000
 10.27383300,  -0.00000001,   0.00000022,   0.00000074,  -0.00000002,   0.00000002,  -0.00000000,   0.00001027,  -0.00000854,  -0.00000028,   0.00000017,   0.00000009,   0.00000000
 10.40700000,  -0.00000001,   0.00000022,   0.00000074,  -0.00000002,   0.00000002,  -0.00000000,   0.00000999,  -0.00000829,  -0.00000028,   0.00000016,   0.00000009,   0.00000000
 10.54016700,  -0.00000000,   0.00000023,   0.00000076,  -0.00000002,   0.00000002,  -0.00000000,   0.00000972,  -0.00000805,  -0.00000028,   0.00000016,   0.00000009,   0.00000000
 10.67333300,  -0.00000000,   0.00000023,   0.00000077,  -0.00000002,   0.00000002,  -0.00000000,   0.00000946,  -0.00000782,  -0.00000028,   0.00000015,   0.00000009,   0.00000000
 10.80650000,  -0.00000000,   0.00000023,   0.00000076,  -0.00000002,   0.00000002,  -0.00000000,   0.00000922,  -0.00000760,  -0.00000028,   0.00000015,   0.00000009,   0.00000000
 10.93966700,  -0.00000000,   0.00000023,   0.00000076,  -0.00000002,   0.00000002,  -0.00000000,   0.00000898,  -0.00000739,  -0.00000028,   0.00000014,   0.00000009,   0.00000000
 11.07283300,  -0.00000000,   0.00000023,   0.00000077,  -0.00000002,   0.00000002,  -0.00000000,   0.00000875,  -0.00000718,  -0.00000028,   0.00000014,   0.00000008,   0.00000000
 11.20600000,  -0.00000000,   0.00000023,   0.00000076,  -0.00000002,   0.00000002,  -0.00000000,   0.00000853,  -0.00000699,  -0.00000028,   0.00000014,   0.00000008,   0.00000000
 11.33916700,  -0.00000000,   0.00000023,   0.00000077,  -0.00000002,   0.00000002,  -0.00000000,   0.00000831,  -0.00000679,  -0.00000029,   0.00000013,   0.00000008,   0.00000000
 11.47233300,  -0.00000000,   0.00000023,   0.00000077,  -0.00000002,   0.00000002,  -0.00000000,   0.00000810,  -0.00000661,  -0.00000029,   0.00000013,   0.00000008,   0.00000000
 11.60550000,  -0.00000000,   0.00000023,   0.00000076,  -0.00000002,   0.00000002,  -0.00000000,   0.00000790,  -0.00000643,  -0.00000029,   0.00000013,   0.00000008,   0.00000000
 11.73866700,  -0.00000000,   0.00000023,   0.00000076,  -0.00000002,   0.00000002,  -0.00000000,   0.00000771,  -0.00000625,  -0.00000029,   0.00000012,   0.00000008,   0.00000000
 11.87183300,  -0.00000000,   0.00000023,   0.00000076,  -0.00000002,   0.00000002,  -0.00000000,   0.00000752,  -0.00000609,  -0.00000029,   0.00000012,   0.00000008,   0.00000000
 12.00500000,  -0.00000000,   0.00000023,   0.00000076,  -0.00000002,   0.00000002,  -0.00000000,   0.00000734,  -0.00000592,  -0.00000029,   0.00000012,   0.00000008,   0.00000000
 12.13816700,  -0.00000001,   0.00000022,   0.00000076,  -0.00000002,   0.00000002,  -0.00000000,   0.00000717,  -0.00000577,  -0.00000029,   0.00000012,   0.00000008,   0.00000000
 12.27133300,  -0.00000001,   0.00000023,   0.00000072,  -0.00000002,   0.00000001,  -0.00000000,   0.00000700,  -0.00000562,  -0.00000030,   0.00000011,   0.00000008,   0.00000000
 12.40450000,  -0.00000001,   0.00000022,   0.00000079,  -0.00000002,   0.00000002,  -0.00000000,   0.00000684,  -0.00000547,  -0.00000030,   0.00000011,   0.00000008,   0.00000000
 12.53766700,  -0.00000001,   0.00000022,   0.00000078,  -0.00000002,   0.00000002,  -0.00000000,   0.00000668,  -0.00000533,  -0.00000030,   0.00000011,   0.00000008,   0.00000000
 12.67083300,  -0.00000000,   0.00000023,   0.00000074,  -0.00000002,   0.00000002,  -0.00000000,   0.00000653,  -0.00000519,  -0.00000030,   0.00000011,   0.00000007,   0.00000000
 12.80400000,  -0.00000000,   0.00000023,   0.00000077,  -0.00000002,   0.00000002,  -0.00000000,   0.00000638,  -0.00000506,  -0.00000030,   0.00000010,   0.00000007,   0.00000000
 12.93716700,  -0.00000000,   0.00000023,   0.00000066,  -0.00000002,   0.00000001,  -0.00000000,   0.00000624,  -0.00000493,  -0.00000030,   0.00000010,   0.00000007,   0.00000000
 13.07033300,  -0.00000001,   0.00000022,   0.00000079,  -0.00000002,   0.00000002,  -0.00000000,   0.00000610,  -0.00000480,  -0.00000030,   0.00000010,   0.00000007,   0.00000000
 13.20350000,  -0.00000000,   0.00000023,   0.00000078,  -0.00000002,   0.00000002,  -0.00000000,   0.00000597,  -0.00000468,  -0.00000030,   0.00000010,   0.00000007,   0.00000000
 13.33666700,  -0.00000000,   0.00000023,   0.00000077,  -0.00000002,   0.00000002,  -0.00000000,   0.00000584,  -0.00000457,  -0.00000030,   0.00000010,   0.00000007,   0.00000000
 13.46983300,  -0.00000000,   0.00000023,   0.00000076,  -0.00000002,   0.00000002,  -0.00000000,   0.00000571,  -0.00000446,  -0.00000030,   0.00000009,   0.00000007,   0.00000000
 13.60300000,  -0.00000001,   0.00000022,   0.00000078,  -0.00000002,   0.00000002,  -0.00000000,   0.00000559,  -0.00000435,  -0.00000030,   0.00000009,   0.00000007,   0.00000000
 13.73616700,  -0.00000000,   0.00000023,   0.00000077,  -0.00000002,   0.00000002,  -0.00000000,   0.00000547,  -0.00000424,  -0.00000031,   0.00000009,   0.00000007,   0.00000000
 13.86933300,  -0.00000000,   0.00000023,   0.00000077,  -0.00000002,   0.00000002,  -0.00000000,   0.00000536,  -0.00000414,  -0.00000031,   0.00000009,   0.00000007,   0.00000000
 14.00250000,  -0.00000000,   0.00000023,   0.00000076,  -0.00000002,   0.00000002,  -0.00000000,   0.00000525,  -0.00000404,  -0.00000031,   0.00000009,   0.00000007,   0.00000000
 14.13566700,  -0.00000001,   0.00000023,   0.00000077,  -0.00000002,   0.00000002,  -0.00000000,   0.00000515,  -0.00000395,  -0.00000031,   0.00000008,   0.00000007,   0.00000000
 14.26883300,  -0.00000001,   0.00000023,   0.00000077,  -0.00000002,   0.00000002,  -0.00000000,   0.00000504,  -0.00000386,  -0.00000031,   0.00000008,   0.00000007,   0.00000000
 14.40200000,  -0.00000000,   0.00000023,   0.00000076,  -0.00000002,   0.00000002,  -0.00000000,   0.00000494,  -0.00000377,  -0.00000031,   0.00000008,   0.00000007,   0.00000000
 14.53516700,  -0.00000000,   0.00000023,   0.00000076,  -0.00000002,   0.00000002,  -0.00000000,   0.00000485,  -0.00000368,  -0.00000031,   0.00000008,   0.00000007,   0.00000000
 14.66833300,  -0.00000000,   0.00000023,   0.00000076,  -0.00000002,   0.00000002,  -0.00000000,   0.00000476,  -0.00000360,  -0.00000031,   0.00000008,   0.00000007,   0.00000000
 14.80150000,  -0.00000000,   0.00000023,   0.00000077,  -0.00000002,   0.00000002,  -0.00000000,   0.00000467,  -0.00000352,  -0.00000031,   0.00000008,   0.00000007,   0.00000000
 14.93466700,  -0.00000001,   0.00000023,   0.00000077,  -0.00000002,   0.00000002,  -0.00000000,   0.00000458,  -0.00000344,  -0.00000031,   0.00000008,   0.00000007,   0.00000000
 15.06783300,  -0.00000000,   0.00000023,   0.00000076,  -0.00000002,   0.00000002,  -0.00000000,   0.00000449,  -0.00000336,  -0.00000031,   0.00000007,   0.00000006,   0.00000000
 15.20100000,  -0.00000000,   0.00000023,   0.00000077,  -0.00000002,   0.00000002,  -0.00000000,   0.00000441,  -0.00000329,  -0.00000031,   0.00000007,   0.00000006,   0.00000000
 15.33416700,  -0.00000000,   0.00000023,   0.00000077,  -0.00000002,   0.00000002,  -0.00000000,   0.00000433,  -0.00000322,  -0.00000031,   0.00000007,   0.00000006,   0.00000000
 15.46733300,  -0.00000000,   0.00000023,   0.00000076,  -0.00000002,   0.00000002,  -0.00000000,   0.00000426,  -0.00000315,  -0.00000031,   0.00000007,   0.00000006,   0.00000000
 15.60050000,  -0.00000000,   0.00000023,   0.00000077,  -0.00000002,   0.00000002,  -0.00000000,   0.00000418,  -0.00000309,  -0.00000031,   0.00000007,   0.00000006,   0.00000000
 15.73366700,  -0.00000000,   0.00000023,   0.00000076,  -0.00000002,   0.00000002,  -0.00000000,   0.00000411,  -0.00000302,  -0.00000031,   0.00000007,   0.00000006,   0.00000000
 15.86683300,  -0.00000000,   0.00000023,   0.00000076,  -0.00000002,   0.00000002,  -0.00000000,   0.00000404,  -0.00000296,  -0.00000031,   0.00000007,   0.00000006,   0.00000000
 16.00000000,  -0.00000000,   0.00000023,   0.00000076,  -0.00000002,   0.00000002,  -0.00000000,   0.00000398,  -0.00000290,  -0.00000031,   0.00000007,   0.00000006,   0.00000000
