Time (m)    , Stress_xx (MPa), Stress_yy (MPa), Stress_zz (MPa), Stress_xy (MPa), Stress_xz (MPa), Stress_yz (MPa), Strain_xx   , Strain_yy   , Strain_zz   , Strain_xy   , Strain_xz   , Strain_yz   
  0.00000000,   0.00000000,   0.00000000,   0.00000000,   0.00000000,   0.00000000,   0.00000000,   0.00000000,   0.00000000,   0.00000000,   0.00000000,   0.00000000,   0.00000000
  0.00050000,  -0.00000003,  -0.00000002,   0.05000061,   0.00000000,  -0.00000001,   0.00000000,  -0.00000086,  -0.00000098,   0.00000261,  -0.00000000,  -0.00000027,   0.00000001
  0.00100000,   0.00000028,   0.00000020,   0.10000178,   0.00000000,  -0.00000005,  -0.00000000,  -0.00000175,  -0.00000200,   0.00000529,  -0.00000000,  -0.00000055,   0.00000002
  0.00150000,   0.00000027,   0.00000044,   0.15000116,   0.00000001,   0.00000008,  -0.00000001,  -0.00000265,  -0.00000304,   0.00000797,  -0.00000001,  -0.00000084,   0.00000002
  0.00200000,   0.00000021,   0.00000051,   0.20000012,   0.00000001,   0.00000014,  -0.00000001,  -0.00000355,  -0.00000408,   0.00001066,  -0.00000001,  -0.00000113,   0.00000003
  0.00250000,  -0.00000020,   0.00000070,   0.25000113,   0.00000001,   0.00000019,  -0.00000001,  -0.00000445,  -0.00000512,   0.00001335,  -0.00000001,  -0.00000142,   0.00000004
  0.00300000,  -0.00000012,   0.00000045,   0.29999998,   0.00000000,   0.00000009,  -0.00000000,  -0.00000535,  -0.00000617,   0.00001604,  -0.00000001,  -0.00000170,   0.00000005
  0.00350000,  -0.00000012,   0.00000020,   0.35000038,   0.00000000,   0.00000005,  -0.00000000,  -0.00000625,  -0.00000722,   0.00001873,  -0.00000002,  -0.00000199,   0.00000005
  0.00400000,  -0.00000068,  -0.00000128,   0.40002967,  -0.00000000,   0.00000026,   0.00000000,  -0.00000715,  -0.00000826,   0.00002142,  -0.00000002,  -0.00000228,   0.00000006
  0.00450000,   0.00000007,  -0.00000020,   0.44999968,  -0.00000000,  -0.00000008,   0.00000000,  -0.00000805,  -0.00000931,   0.00002411,  -0.00000002,  -0.00000257,   0.00000007
  0.00500000,  -0.00000001,   0.00000016,   0.49999523,  -0.00000000,  -0.00000002,   0.00000000,  -0.00000895,  -0.00001036,   0.00002680,  -0.00000003,  -0.00000286,   0.00000008
  0.00550000,  -0.00000018,  -0.00000004,   0.55000041,  -0.00000000,   0.00000005,  -0.00000000,  -0.00000985,  -0.00001141,   0.00002950,  -0.00000003,  -0.00000315,   0.00000009
  0.00600000,   0.00000042,   0.00000004,   0.59999179,  -0.00000001,  -0.00000024,   0.00000001,  -0.00001075,  -0.00001246,   0.00003219,  -0.00000003,  -0.00000344,   0.00000009
  0.00650000,  -0.00000010,  -0.00000013,   0.65000124,  -0.00000000,  -0.00000001,  -0.00000000,  -0.00001165,  -0.00001350,   0.00003488,  -0.00000003,  -0.00000373,   0.00000010
  0.00700000,  -0.00000001,   0.00000000,   0.69999902,  -0.00000000,   0.00000001,  -0.00000000,  -0.00001254,  -0.00001455,   0.00003758,  -0.00000004,  -0.00000402,   0.00000011
  0.00750000,  -0.00000127,  -0.00000102,   0.75003351,  -0.00000000,   0.00000034,   0.00000000,  -0.00001345,  -0.00001560,   0.00004027,  -0.00000004,  -0.00000431,   0.00000012
  0.00800000,  -0.00000018,  -0.00000017,   0.80000499,  -0.00000000,   0.00000001,   0.00000000,  -0.00001434,  -0.00001665,   0.00004296,  -0.00000004,  -0.00000460,   0.00000012
  0.00850000,  -0.00000002,  -0.00000001,   0.85000101,   0.00000000,   0.00000003,  -0.00000000,  -0.00001524,  -0.00001770,   0.00004566,  -0.00000004,  -0.00000489,   0.00000013
  0.00900000,  -0.00000135,  -0.00000086,   0.90003417,  -0.00000000,   0.00000034,   0.00000001,  -0.00001615,  -0.00001875,   0.00004835,  -0.00000005,  -0.00000518,   0.00000014
  0.00950000,   0.00000015,   0.00000010,   0.94999736,   0.00000000,  -0.00000007,   0.00000000,  -0.00001705,  -0.00001980,   0.00005104,  -0.00000005,  -0.00000546,   0.00000015
  0.01000000,  -0.00000000,  -0.00000000,   1.00000110,   0.00000000,   0.00000004,  -0.00000000,  -0.00001795,  -0.00002085,   0.00005374,  -0.00000005,  -0.00000575,   0.00000016
  0.07658333,   0.00000061,  -0.00000021,   0.99999288,   0.00000004,  -0.00000069,   0.00000003,  -0.00001835,  -0.00002106,   0.00005428,  -0.00000005,  -0.00000589,   0.00000016
  0.14316667,  -0.00000095,  -0.00000124,   0.99999791,   0.00000001,  -0.00000019,   0.00000003,  -0.00001869,  -0.00002111,   0.00005463,  -0.00000005,  -0.00000599,   0.00000016
  0.20975000,  -0.00000126,  -0.00000130,   0.99999724,  -0.00000002,  -0.00000018,   0.00000003,  -0.00001897,  -0.00002114,   0.00005493,  -0.00000005,  -0.00000606,   0.00000016
  0.27633333,  -0.00000092,  -0.00000082,   0.99999787,  -0.00000003,  -0.00000013,   0.00000002,  -0.00001922,  -0.00002116,   0.00005518,  -0.00000005,  -0.00000613,   0.00000016
  0.34291667,  -0.00000726,   0.00000499,   1.00001310,  -0.00000003,  -0.00000476,   0.00000007,  -0.00001943,  -0.00002117,   0.00005539,  -0.00000005,  -0.00000619,   0.00000016
  0.40950000,  -0.00000044,   0.00000001,   1.00000500,  -0.00000003,  -0.00000022,   0.00000003,  -0.00001960,  -0.00002119,   0.00005558,  -0.00000005,  -0.00000624,   0.00000016
  0.47608333,  -0.00000471,   0.00000370,   1.00001460,  -0.00000002,  -0.00000241,   0.00000004,  -0.00001975,  -0.00002120,   0.00005573,  -0.00000006,  -0.00000629,   0.00000016
  0.54266667,  -0.00000562,   0.00000453,   1.00002460,  -0.00000002,  -0.00000402,   0.00000009,  -0.00001988,  -0.00002122,   0.00005587,  -0.00000006,  -0.00000633,   0.00000016
  0.60925000,   0.00000010,   0.00000038,   1.00000020,  -0.00000001,  -0.00000009,   0.00000002,  -0.00001999,  -0.00002123,   0.00005598,  -0.00000006,  -0.00000636,   0.00000016
  0.67583333,  -0.00000264,   0.00000212,   1.00000790,  -0.00000000,  -0.00000105,   0.00000001,  -0.00002008,  -0.00002124,   0.00005608,  -0.00000006,  -0.00000639,   0.00000016
  0.74241667,  -0.00000342,   0.00000273,   1.00001240,  -0.00000000,  -0.00000234,   0.00000002,  -0.00002016,  -0.00002125,   0.00005616,  -0.00000006,  -0.00000641,   0.00000016
  0.80900000,  -0.00000404,   0.00000161,   1.00004150,  -0.00000000,  -0.00000217,   0.00000004,  -0.00002023,  -0.00002126,   0.00005624,  -0.00000006,  -0.00000644,   0.00000016
  0.87558333,  -0.00000071,   0.00000128,   0.99999868,  -0.00000001,  -0.00000093,   0.00000003,  -0.00002028,  -0.00002127,   0.00005630,  -0.00000006,  -0.00000646,   0.00000016
  0.94216667,  -0.00000050,   0.00000094,   1.00000100,  -0.00000001,  -0.00000038,   0.00000002,  -0.00002033,  -0.00002127,   0.00005635,  -0.00000006,  -0.00000647,   0.00000017
  1.00875000,  -0.00000127,   0.00000133,   1.00000460,  -0.00000001,  -0.00000088,   0.00000002,  -0.00002037,  -0.00002128,   0.00005640,  -0.00000006,  -0.00000649,   0.00000017
  1.07533330,  -0.00000183,   0.00000093,   1.00001780,  -0.00000001,  -0.00000101,   0.00000002,  -0.00002041,  -0.00002129,   0.00005644,  -0.00000006,  -0.00000651,   0.00000017
  1.14191670,  -0.00000031,   0.00000066,   0.99999818,  -0.00000001,  -0.00000047,   0.00000002,  -0.00002044,  -0.00002129,   0.00005647,  -0.00000006,  -0.00000652,   0.00000017
  1.20850000,  -0.00000086,   0.00000068,   1.00000760,  -0.00000001,  -0.00000044,   0.00000002,  -0.00002046,  -0.00002130,   0.00005650,  -0.00000006,  -0.00000653,   0.00000017
  1.27508330,  -0.00000093,   0.00000073,   1.00000720,  -0.00000001,  -0.00000065,   0.00000002,  -0.00002048,  -0.00002131,   0.00005653,  -0.00000006,  -0.00000654,   0.00000017
  1.34166670,  -0.00000106,   0.00000046,   1.00001300,  -0.00000001,  -0.00000060,   0.00000002,  -0.00002050,  -0.00002131,   0.00005655,  -0.00000006,  -0.00000655,   0.00000017
  1.40825000,  -0.00000020,   0.00000029,   0.99999957,  -0.00000000,  -0.00000024,   0.00000001,  -0.00002052,  -0.00002132,   0.00005657,  -0.00000006,  -0.00000656,   0.00000017
  1.47483330,  -0.00000018,   0.00000018,   1.00000090,  -0.00000000,  -0.00000008,   0.00000000,  -0.00002053,  -0.00002132,   0.00005659,  -0.00000006,  -0.00000657,   0.00000017
  1.54141670,  -0.00000044,   0.00000028,   1.00000290,  -0.00000000,  -0.00000024,   0.00000001,  -0.00002054,  -0.00002133,   0.00005661,  -0.00000006,  -0.00000658,   0.00000017
  1.60800000,  -0.00000059,   0.00000016,   1.00000710,   0.00000000,  -0.00000028,   0.00000001,  -0.00002055,  -0.00002133,   0.00005662,  -0.00000006,  -0.00000658,   0.00000017
  1.67458330,  -0.00000010,   0.00000014,   1.00000030,   0.00000000,  -0.00000010,   0.00000000,  -0.00002056,  -0.00002134,   0.00005663,  -0.00000006,  -0.00000659,   0.00000017
  1.74116670,   0.00000270,   0.00000060,   0.99993093,   0.00000000,  -0.00000055,   0.00000000,  -0.00002057,  -0.00002134,   0.00005664,  -0.00000006,  -0.00000660,   0.00000017
  1.80775000,   0.00000033,   0.00000019,   0.99998878,   0.00000000,  -0.00000003,   0.00000000,  -0.00002058,  -0.00002135,   0.00005666,  -0.00000006,  -0.00000660,   0.00000017
  1.87433330,  -0.00000005,   0.00000016,   0.99999964,   0.00000000,  -0.00000008,   0.00000000,  -0.00002058,  -0.00002135,   0.00005667,  -0.00000006,  -0.00000661,   0.00000017
  1.94091670,  -0.00000003,   0.00000012,   1.00000020,   0.00000000,  -0.00000007,   0.00000000,  -0.00002059,  -0.00002135,   0.00005668,  -0.00000006,  -0.00000662,   0.00000017
  2.00750000,   0.00000197,   0.00000066,   0.99994948,  -0.00000000,  -0.00000033,   0.00000000,  -0.00002059,  -0.00002136,   0.00005668,  -0.00000006,  -0.00000662,   0.00000017
  2.07408330,  -0.00000002,  -0.00000001,   1.00000210,   0.00000000,   0.00000012,   0.00000000,  -0.00002060,  -0.00002136,   0.00005670,  -0.00000006,  -0.00000663,   0.00000017
  2.14066670,  -0.00000017,   0.00000008,   1.00000390,   0.00000000,  -0.00000008,   0.00000000,  -0.00002060,  -0.00002137,   0.00005670,  -0.00000006,  -0.00000663,   0.00000017
  2.20725000,   0.00000002,   0.00000010,   0.99999991,   0.00000000,  -0.00000006,   0.00000000,  -0.00002060,  -0.00002137,   0.00005671,  -0.00000006,  -0.00000664,   0.00000017
  2.27383330,   0.00000020,  -0.00000007,   0.99999909,   0.00000000,   0.00000021,  -0.00000000,  -0.00002061,  -0.00002138,   0.00005672,  -0.00000006,  -0.00000664,   0.00000017
  2.34041670,  -0.00000111,  -0.00000070,   1.00003480,   0.00000000,   0.00000060,  -0.00000001,  -0.00002061,  -0.00002138,   0.00005673,  -0.00000006,  -0.00000665,   0.00000017
  2.40700000,  -0.00000050,  -0.00000022,   1.00001520,   0.00000001,   0.00000017,  -0.00000001,  -0.00002061,  -0.00002138,   0.00005673,  -0.00000006,  -0.00000665,   0.00000017
  2.47358330,   0.00000004,   0.00000006,   0.99999972,   0.00000000,  -0.00000003,   0.00000000,  -0.00002062,  -0.00002139,   0.00005674,  -0.00000006,  -0.00000666,   0.00000017
  2.54016670,  -0.00000217,  -0.00000141,   1.00006680,   0.00000001,   0.00000115,  -0.00000002,  -0.00002062,  -0.00002139,   0.00005675,  -0.00000006,  -0.00000666,   0.00000017
  2.60675000,   0.00000011,   0.00000007,   0.99999829,   0.00000000,   0.00000002,  -0.00000000,  -0.00002062,  -0.00002140,   0.00005675,  -0.00000006,  -0.00000666,   0.00000017
  2.67333330,  -0.00000006,  -0.00000002,   1.00000250,   0.00000000,   0.00000003,   0.00000000,  -0.00002062,  -0.00002140,   0.00005676,  -0.00000006,  -0.00000667,   0.00000017
  2.73991670,   0.00000119,   0.00000073,   0.99996679,  -0.00000000,  -0.00000029,   0.00000000,  -0.00002062,  -0.00002140,   0.00005676,  -0.00000006,  -0.00000667,   0.00000017
  2.80650000,  -0.00000008,  -0.00000005,   1.00000370,   0.00000000,   0.00000011,  -0.00000000,  -0.00002063,  -0.00002141,   0.00005677,  -0.00000006,  -0.00000668,   0.00000017
  2.87308330,  -0.00000027,  -0.00000016,   1.00000900,  -0.00000000,   0.00000009,   0.00000000,  -0.00002063,  -0.00002141,   0.00005678,  -0.00000006,  -0.00000668,   0.00000017
  2.93966670,   0.00000237,   0.00000143,   0.99992976,   0.00000001,  -0.00000078,  -0.00000000,  -0.00002063,  -0.00002141,   0.00005678,  -0.00000006,  -0.00000669,   0.00000017
  3.00625000,  -0.00000009,  -0.00000005,   1.00000390,   0.00000000,   0.00000013,  -0.00000000,  -0.00002063,  -0.00002142,   0.00005679,  -0.00000006,  -0.00000669,   0.00000017
  3.07283330,   0.00000005,   0.00000002,   0.99999969,   0.00000000,  -0.00000001,   0.00000000,  -0.00002063,  -0.00002142,   0.00005679,  -0.00000006,  -0.00000669,   0.00000017
  3.13941670,  -0.00000077,  -0.00000043,   1.00002340,   0.00000001,   0.00000051,  -0.00000001,  -0.00002064,  -0.00002143,   0.00005680,  -0.00000006,  -0.00000670,   0.00000017
  3.20600000,   0.00000022,   0.00000014,   0.99999483,   0.00000000,  -0.00000002,  -0.00000000,  -0.00002064,  -0.00002143,   0.00005680,  -0.00000006,  -0.00000670,   0.00000017
  3.27258330,  -0.00000004,  -0.00000003,   1.00000220,   0.00000000,   0.00000004,  -0.00000000,  -0.00002064,  -0.00002143,   0.00005681,  -0.00000006,  -0.00000670,   0.00000017
  3.33916670,   0.00000145,   0.00000095,   0.99995731,   0.00000000,  -0.00000048,  -0.00000000,  -0.00002064,  -0.00002143,   0.00005681,  -0.00000006,  -0.00000671,   0.00000017
  3.40575000,   0.00000087,   0.00000058,   0.99997657,   0.00000000,  -0.00000027,  -0.00000001,  -0.00002064,  -0.00002144,   0.00005682,  -0.00000006,  -0.00000671,   0.00000017
  3.47233330,   0.00000006,   0.00000003,   0.99999941,   0.00000000,   0.00000001,  -0.00000000,  -0.00002064,  -0.00002144,   0.00005683,  -0.00000006,  -0.00000671,   0.00000017
  3.53891670,   0.00000007,   0.00000003,   0.99999907,   0.00000000,  -0.00000000,  -0.00000000,  -0.00002065,  -0.00002144,   0.00005683,  -0.00000006,  -0.00000672,   0.00000017
  3.60550000,  -0.00000036,  -0.00000015,   1.00001100,   0.00000000,   0.00000025,  -0.00000001,  -0.00002065,  -0.00002145,   0.00005684,  -0.00000006,  -0.00000672,   0.00000017
  3.67208330,   0.00000009,   0.00000006,   0.99999874,   0.00000000,   0.00000002,  -0.00000000,  -0.00002065,  -0.00002145,   0.00005684,  -0.00000006,  -0.00000672,   0.00000017
  3.73866670,  -0.00000235,  -0.00000134,   1.00006970,   0.00000000,   0.00000111,  -0.00000001,  -0.00002065,  -0.00002146,   0.00005685,  -0.00000006,  -0.00000673,   0.00000017
  3.80525000,   0.00000003,   0.00000002,   1.00000040,   0.00000000,   0.00000004,  -0.00000000,  -0.00002065,  -0.00002146,   0.00005685,  -0.00000006,  -0.00000673,   0.00000017
  3.87183330,  -0.00000000,  -0.00000001,   1.00000140,   0.00000000,   0.00000003,  -0.00000000,  -0.00002065,  -0.00002146,   0.00005686,  -0.00000006,  -0.00000673,   0.00000017
  3.93841670,   0.00000020,   0.00000019,   0.99999422,  -0.00000000,   0.00000002,  -0.00000000,  -0.00002066,  -0.00002146,   0.00005686,  -0.00000006,  -0.00000674,   0.00000017
  4.00500000,  -0.00000005,  -0.00000003,   1.00000260,   0.00000000,   0.00000008,  -0.00000000,  -0.00002066,  -0.00002147,   0.00005687,  -0.00000006,  -0.00000674,   0.00000017
  4.07158330,   0.00000158,   0.00000108,   0.99995238,  -0.00000000,  -0.00000059,   0.00000001,  -0.00002066,  -0.00002147,   0.00005687,  -0.00000006,  -0.00000674,   0.00000017
  4.13816670,  -0.00000004,  -0.00000002,   1.00000230,   0.00000000,   0.00000007,  -0.00000000,  -0.00002066,  -0.00002147,   0.00005688,  -0.00000006,  -0.00000675,   0.00000017
  4.20475000,  -0.00000013,  -0.00000012,   1.00000580,   0.00000000,   0.00000008,  -0.00000000,  -0.00002066,  -0.00002148,   0.00005688,  -0.00000006,  -0.00000675,   0.00000017
  4.27133330,   0.00000004,   0.00000001,   0.99999991,   0.00000000,   0.00000001,  -0.00000000,  -0.00002067,  -0.00002148,   0.00005689,  -0.00000006,  -0.00000675,   0.00000017
  4.33791670,  -0.00000114,  -0.00000070,   1.00003570,   0.00000000,   0.00000060,  -0.00000000,  -0.00002067,  -0.00002148,   0.00005690,  -0.00000006,  -0.00000676,   0.00000017
  4.40450000,   0.00000003,   0.00000001,   1.00000010,   0.00000000,   0.00000003,  -0.00000000,  -0.00002067,  -0.00002148,   0.00005690,  -0.00000006,  -0.00000676,   0.00000017
  4.47108330,  -0.00000001,  -0.00000002,   1.00000160,   0.00000000,   0.00000004,  -0.00000000,  -0.00002067,  -0.00002149,   0.00005690,  -0.00000006,  -0.00000676,   0.00000017
  4.53766670,   0.00000034,   0.00000026,   0.99998910,   0.00000001,  -0.00000007,  -0.00000001,  -0.00002067,  -0.00002149,   0.00005691,  -0.00000006,  -0.00000676,   0.00000017
  4.60425000,  -0.00000005,  -0.00000004,   1.00000260,   0.00000000,   0.00000008,  -0.00000000,  -0.00002068,  -0.00002149,   0.00005691,  -0.00000006,  -0.00000677,   0.00000017
  4.67083330,   0.00000246,   0.00000161,   0.99992308,   0.00000001,  -0.00000104,  -0.00000001,  -0.00002068,  -0.00002149,   0.00005692,  -0.00000006,  -0.00000677,   0.00000017
  4.73741670,   0.00000064,   0.00000041,   0.99998013,   0.00000001,  -0.00000024,  -0.00000001,  -0.00002068,  -0.00002150,   0.00005692,  -0.00000006,  -0.00000677,   0.00000017
  4.80400000,   0.00000018,   0.00000010,   0.99999572,   0.00000000,  -0.00000005,  -0.00000000,  -0.00002068,  -0.00002150,   0.00005693,  -0.00000006,  -0.00000678,   0.00000017
  4.87058330,   0.00000007,   0.00000003,   0.99999913,   0.00000000,   0.00000000,  -0.00000000,  -0.00002068,  -0.00002150,   0.00005693,  -0.00000006,  -0.00000678,   0.00000017
  4.93716670,   0.00000023,   0.00000019,   0.99999259,   0.00000001,  -0.00000003,  -0.00000000,  -0.00002069,  -0.00002151,   0.00005694,  -0.00000006,  -0.00000678,   0.00000017
  5.00375000,  -0.00000008,  -0.00000005,   1.00000340,   0.00000000,   0.00000008,  -0.00000000,  -0.00002069,  -0.00002151,   0.00005694,  -0.00000006,  -0.00000678,   0.00000017
  5.07033330,   0.00000211,   0.00000140,   0.99993423,   0.00000002,  -0.00000087,  -0.00000001,  -0.00002069,  -0.00002151,   0.00005695,  -0.00000006,  -0.00000679,   0.00000017
  5.13691670,   0.00000114,   0.00000071,   0.99996568,   0.00000001,  -0.00000045,  -0.00000000,  -0.00002069,  -0.00002151,   0.00005695,  -0.00000006,  -0.00000679,   0.00000017
  5.20350000,  -0.00000005,  -0.00000007,   1.00000200,   0.00000001,   0.00000004,  -0.00000000,  -0.00002070,  -0.00002152,   0.00005696,  -0.00000006,  -0.00000679,   0.00000017
  5.27008330,   0.00000005,   0.00000002,   0.99999976,   0.00000000,   0.00000001,  -0.00000000,  -0.00002070,  -0.00002152,   0.00005696,  -0.00000006,  -0.00000679,   0.00000017
  5.33666670,  -0.00000002,  -0.00000002,   1.00000170,   0.00000000,   0.00000005,  -0.00000000,  -0.00002070,  -0.00002152,   0.00005697,  -0.00000006,  -0.00000680,   0.00000017
  5.40325000,   0.00000042,   0.00000029,   0.99998762,   0.00000000,  -0.00000012,  -0.00000000,  -0.00002070,  -0.00002152,   0.00005697,  -0.00000006,  -0.00000680,   0.00000017
  5.46983330,   0.00000011,   0.00000007,   0.99999749,   0.00000000,  -0.00000000,  -0.00000000,  -0.00002070,  -0.00002153,   0.00005698,  -0.00000006,  -0.00000680,   0.00000017
  5.53641670,   0.00000003,   0.00000001,   1.00000040,   0.00000000,   0.00000003,   0.00000000,  -0.00002071,  -0.00002153,   0.00005698,  -0.00000006,  -0.00000680,   0.00000017
  5.60300000,   0.00000035,   0.00000026,   0.99998914,   0.00000001,  -0.00000008,  -0.00000000,  -0.00002071,  -0.00002153,   0.00005699,  -0.00000006,  -0.00000681,   0.00000017
  5.66958330,  -0.00000002,  -0.00000001,   1.00000170,   0.00000000,   0.00000006,   0.00000000,  -0.00002071,  -0.00002153,   0.00005699,  -0.00000006,  -0.00000681,   0.00000017
  5.73616670,   0.00000002,   0.00000001,   1.00000050,   0.00000000,   0.00000003,   0.00000000,  -0.00002071,  -0.00002154,   0.00005700,  -0.00000006,  -0.00000681,   0.00000017
  5.80275000,  -0.00000030,  -0.00000015,   1.00000920,   0.00000000,   0.00000021,  -0.00000000,  -0.00002072,  -0.00002154,   0.00005700,  -0.00000006,  -0.00000681,   0.00000017
  5.86933330,   0.00000277,   0.00000173,   0.99991829,   0.00000000,  -0.00000121,   0.00000000,  -0.00002072,  -0.00002154,   0.00005700,  -0.00000006,  -0.00000682,   0.00000017
  5.93591670,   0.00000136,   0.00000084,   0.99996215,   0.00000000,  -0.00000056,   0.00000001,  -0.00002072,  -0.00002154,   0.00005701,  -0.00000006,  -0.00000682,   0.00000017
  6.00250000,  -0.00000046,  -0.00000030,   1.00001750,   0.00000000,   0.00000024,   0.00000001,  -0.00002072,  -0.00002155,   0.00005702,  -0.00000006,  -0.00000682,   0.00000017
  6.06908330,   0.00000005,   0.00000003,   0.99999983,   0.00000000,   0.00000002,   0.00000000,  -0.00002072,  -0.00002155,   0.00005702,  -0.00000006,  -0.00000682,   0.00000017
  6.13566670,  -0.00000003,  -0.00000002,   1.00000190,   0.00000000,   0.00000005,   0.00000000,  -0.00002073,  -0.00002155,   0.00005703,  -0.00000006,  -0.00000682,   0.00000017
  6.20225000,   0.00000048,   0.00000034,   0.99998666,   0.00000000,  -0.00000015,   0.00000000,  -0.00002073,  -0.00002155,   0.00005703,  -0.00000006,  -0.00000683,   0.00000017
  6.26883330,  -0.00000002,  -0.00000001,   1.00000190,   0.00000000,   0.00000005,   0.00000000,  -0.00002073,  -0.00002155,   0.00005704,  -0.00000006,  -0.00000683,   0.00000017
  6.33541670,   0.00000260,   0.00000170,   0.99992241,   0.00000000,  -0.00000106,   0.00000001,  -0.00002073,  -0.00002155,   0.00005704,  -0.00000006,  -0.00000683,   0.00000017
  6.40200000,   0.00000050,   0.00000036,   0.99998728,   0.00000000,  -0.00000015,   0.00000000,  -0.00002074,  -0.00002156,   0.00005705,  -0.00000006,  -0.00000683,   0.00000017
  6.46858330,   0.00000010,   0.00000006,   0.99999842,   0.00000000,  -0.00000000,   0.00000000,  -0.00002074,  -0.00002156,   0.00005705,  -0.00000006,  -0.00000683,   0.00000017
  6.53516670,   0.00000005,   0.00000002,   0.99999950,   0.00000000,   0.00000001,   0.00000000,  -0.00002074,  -0.00002156,   0.00005706,  -0.00000006,  -0.00000684,   0.00000017
  6.60175000,  -0.00000005,   0.00000002,   1.00000310,   0.00000000,   0.00000009,   0.00000000,  -0.00002074,  -0.00002156,   0.00005706,  -0.00000006,  -0.00000684,   0.00000017
  6.66833330,   0.00000010,   0.00000007,   0.99999813,   0.00000000,   0.00000000,   0.00000000,  -0.00002075,  -0.00002157,   0.00005707,  -0.00000006,  -0.00000684,   0.00000017
  6.73491670,  -0.00000004,  -0.00000003,   1.00000220,   0.00000000,   0.00000005,   0.00000000,  -0.00002075,  -0.00002157,   0.00005707,  -0.00000006,  -0.00000684,   0.00000017
  6.80150000,   0.00000087,   0.00000059,   0.99997472,   0.00000000,  -0.00000031,   0.00000000,  -0.00002075,  -0.00002157,   0.00005707,  -0.00000006,  -0.00000684,   0.00000017
  6.86808330,   0.00000020,   0.00000014,   0.99999594,   0.00000000,  -0.00000003,   0.00000000,  -0.00002075,  -0.00002157,   0.00005708,  -0.00000006,  -0.00000685,   0.00000017
  6.93466670,   0.00000004,   0.00000002,   1.00000000,   0.00000000,   0.00000002,   0.00000000,  -0.00002076,  -0.00002157,   0.00005708,  -0.00000006,  -0.00000685,   0.00000017
  7.00125000,   0.00000056,   0.00000039,   0.99998576,  -0.00000000,  -0.00000016,   0.00000001,  -0.00002076,  -0.00002158,   0.00005709,  -0.00000006,  -0.00000685,   0.00000017
  7.06783330,  -0.00000016,  -0.00000009,   1.00000610,   0.00000000,   0.00000012,   0.00000000,  -0.00002076,  -0.00002158,   0.00005709,  -0.00000006,  -0.00000685,   0.00000017
  7.13441670,   0.00000004,   0.00000002,   0.99999975,   0.00000000,   0.00000002,  -0.00000000,  -0.00002076,  -0.00002158,   0.00005710,  -0.00000006,  -0.00000685,   0.00000017
  7.20100000,  -0.00000119,  -0.00000071,   1.00003780,  -0.00000000,   0.00000060,   0.00000000,  -0.00002077,  -0.00002158,   0.00005710,  -0.00000006,  -0.00000686,   0.00000017
  7.26758330,   0.00000006,   0.00000004,   0.99999961,   0.00000000,   0.00000003,   0.00000000,  -0.00002077,  -0.00002158,   0.00005711,  -0.00000006,  -0.00000686,   0.00000017
  7.33416670,   0.00000007,   0.00000003,   0.99999802,  -0.00000000,  -0.00000001,  -0.00000000,  -0.00002077,  -0.00002159,   0.00005711,  -0.00000006,  -0.00000686,   0.00000017
  7.40075000,  -0.00000064,  -0.00000033,   1.00002410,   0.00000000,   0.00000040,   0.00000001,  -0.00002077,  -0.00002159,   0.00005712,  -0.00000006,  -0.00000686,   0.00000017
  7.46733330,   0.00000033,   0.00000022,   0.99999144,   0.00000000,  -0.00000009,  -0.00000000,  -0.00002077,  -0.00002159,   0.00005712,  -0.00000006,  -0.00000686,   0.00000017
  7.53391670,  -0.00000008,  -0.00000006,   1.00000330,  -0.00000000,   0.00000007,  -0.00000000,  -0.00002078,  -0.00002159,   0.00005713,  -0.00000006,  -0.00000687,   0.00000017
  7.60050000,   0.00000230,   0.00000152,   0.99993227,   0.00000001,  -0.00000093,  -0.00000000,  -0.00002078,  -0.00002159,   0.00005713,  -0.00000006,  -0.00000687,   0.00000017
  7.66708330,  -0.00000007,  -0.00000003,   1.00000350,   0.00000000,   0.00000008,   0.00000000,  -0.00002078,  -0.00002160,   0.00005713,  -0.00000006,  -0.00000687,   0.00000017
  7.73366670,  -0.00000057,  -0.00000038,   1.00001760,   0.00000000,   0.00000028,  -0.00000000,  -0.00002079,  -0.00002160,   0.00005714,  -0.00000006,  -0.00000687,   0.00000017
  7.80025000,   0.00000005,   0.00000002,   0.99999928,   0.00000000,   0.00000001,  -0.00000000,  -0.00002079,  -0.00002160,   0.00005714,  -0.00000006,  -0.00000687,   0.00000017
  7.86683330,  -0.00000001,  -0.00000001,   1.00000140,   0.00000000,   0.00000004,  -0.00000000,  -0.00002079,  -0.00002160,   0.00005715,  -0.00000006,  -0.00000687,   0.00000017
  7.93341670,   0.00000037,   0.00000025,   0.99998866,   0.00000000,  -0.00000011,  -0.00000000,  -0.00002079,  -0.00002160,   0.00005715,  -0.00000006,  -0.00000688,   0.00000017
  8.00000000,  -0.00000004,  -0.00000003,   1.00000210,   0.00000000,   0.00000006,  -0.00000000,  -0.00002079,  -0.00002161,   0.00005716,  -0.00000006,  -0.00000688,   0.00000017
  8.00025000,   0.00000115,   0.00000119,   0.97499776,  -0.00000000,  -0.00000011,   0.00000005,  -0.00002038,  -0.00002113,   0.00005587,  -0.00000006,  -0.00000675,   0.00000017
  8.00050000,  -0.00000158,  -0.00000148,   0.94999889,  -0.00000001,  -0.00000002,   0.00000002,  -0.00001994,  -0.00002063,   0.00005455,  -0.00000006,  -0.00000661,   0.00000016
  8.00075000,  -0.00000129,  -0.00000725,   0.92501382,  -0.00000002,  -0.00000159,   0.00000003,  -0.00001949,  -0.00002013,   0.00005321,  -0.00000006,  -0.00000647,   0.00000016
  8.00100000,  -0.00000190,  -0.00000489,   0.89999656,  -0.00000004,  -0.00000078,   0.00000001,  -0.00001905,  -0.00001961,   0.00005188,  -0.00000005,  -0.00000633,   0.00000016
  8.00125000,  -0.00000220,  -0.00000308,   0.87500079,  -0.00000004,  -0.00000006,  -0.00000000,  -0.00001860,  -0.00001909,   0.00005053,  -0.00000005,  -0.00000618,   0.00000015
  8.00150000,  -0.00000093,  -0.00000158,   0.84999758,  -0.00000003,  -0.00000005,   0.00000000,  -0.00001815,  -0.00001857,   0.00004919,  -0.00000005,  -0.00000604,   0.00000015
  8.00175000,   0.00000087,   0.00000359,   0.82492958,  -0.00000001,  -0.00000040,  -0.00000001,  -0.00001769,  -0.00001805,   0.00004784,  -0.00000005,  -0.00000590,   0.00000014
  8.00200000,   0.00000021,   0.00000076,   0.80000311,  -0.00000001,   0.00000018,   0.00000001,  -0.00001724,  -0.00001753,   0.00004650,  -0.00000005,  -0.00000575,   0.00000014
  8.00225000,   0.00000144,   0.00000017,   0.77500518,   0.00000001,  -0.00000011,   0.00000001,  -0.00001679,  -0.00001701,   0.00004516,  -0.00000005,  -0.00000561,   0.00000014
  8.00250000,   0.00000152,   0.00000087,   0.74999603,   0.00000002,  -0.00000012,   0.00000001,  -0.00001634,  -0.00001648,   0.00004381,  -0.00000005,  -0.00000546,   0.00000013
  8.00275000,   0.00000072,   0.00000065,   0.72500572,   0.00000002,   0.00000010,   0.00000001,  -0.00001590,  -0.00001596,   0.00004247,  -0.00000004,  -0.00000532,   0.00000013
  8.00300000,   0.00000053,   0.00000044,   0.70000442,   0.00000001,   0.00000009,   0.00000000,  -0.00001545,  -0.00001544,   0.00004112,  -0.00000004,  -0.00000517,   0.00000012
  8.00325000,   0.00000065,   0.00000054,   0.67499375,   0.00000001,  -0.00000005,  -0.00000000,  -0.00001500,  -0.00001491,   0.00003977,  -0.00000004,  -0.00000503,   0.00000012
  8.00350000,   0.00000013,   0.00000006,   0.65000068,   0.00000000,   0.00000003,  -0.00000000,  -0.00001455,  -0.00001439,   0.00003843,  -0.00000004,  -0.00000489,   0.00000012
  8.00375000,   0.00000018,   0.00000012,   0.62499491,  -0.00000000,  -0.00000003,  -0.00000000,  -0.00001410,  -0.00001387,   0.00003708,  -0.00000004,  -0.00000474,   0.00000011
  8.00400000,  -0.00000034,  -0.00000028,   0.60000480,  -0.00000001,   0.00000011,  -0.00000000,  -0.00001365,  -0.00001334,   0.00003574,  -0.00000004,  -0.00000460,   0.00000011
  8.00425000,  -0.00000023,  -0.00000026,   0.57500185,  -0.00000001,   0.00000006,  -0.00000000,  -0.00001320,  -0.00001282,   0.00003439,  -0.00000004,  -0.00000445,   0.00000010
  8.00450000,  -0.00000041,  -0.00000040,   0.55000551,  -0.00000001,   0.00000011,  -0.00000000,  -0.00001275,  -0.00001229,   0.00003305,  -0.00000004,  -0.00000431,   0.00000010
  8.00475000,  -0.00000029,  -0.00000032,   0.52500302,  -0.00000000,   0.00000007,  -0.00000000,  -0.00001230,  -0.00001177,   0.00003170,  -0.00000003,  -0.00000416,   0.00000010
  8.00500000,   0.00000039,   0.00000031,   0.49998745,   0.00000000,  -0.00000011,  -0.00000000,  -0.00001185,  -0.00001125,   0.00003035,  -0.00000003,  -0.00000402,   0.00000009
  8.00525000,  -0.00000019,  -0.00000015,   0.47500190,   0.00000000,   0.00000008,  -0.00000000,  -0.00001140,  -0.00001072,   0.00002901,  -0.00000003,  -0.00000387,   0.00000009
  8.00550000,  -0.00000005,  -0.00000006,   0.45000009,   0.00000001,   0.00000005,  -0.00000000,  -0.00001095,  -0.00001020,   0.00002766,  -0.00000003,  -0.00000373,   0.00000008
  8.00575000,  -0.00000034,  -0.00000024,   0.42500726,   0.00000001,   0.00000015,  -0.00000000,  -0.00001050,  -0.00000967,   0.00002632,  -0.00000003,  -0.00000358,   0.00000008
  8.00600000,  -0.00000000,   0.00000000,   0.40000022,   0.00000001,   0.00000005,   0.00000000,  -0.00001005,  -0.00000915,   0.00002497,  -0.00000003,  -0.00000344,   0.00000008
  8.00625000,  -0.00000011,  -0.00000007,   0.37500299,   0.00000001,   0.00000009,   0.00000000,  -0.00000960,  -0.00000863,   0.00002362,  -0.00000003,  -0.00000330,   0.00000007
  8.00650000,  -0.00000004,  -0.00000000,   0.35000120,   0.00000001,   0.00000007,   0.00000000,  -0.00000915,  -0.00000810,   0.00002228,  -0.00000002,  -0.00000315,   0.00000007
  8.00675000,  -0.00000006,  -0.00000003,   0.32500163,   0.00000000,   0.00000007,   0.00000000,  -0.00000870,  -0.00000758,   0.00002093,  -0.00000002,  -0.00000301,   0.00000006
  8.00700000,  -0.00000029,  -0.00000019,   0.30000606,   0.00000000,   0.00000014,   0.00000000,  -0.00000825,  -0.00000705,   0.00001958,  -0.00000002,  -0.00000286,   0.00000006
  8.00725000,  -0.00000005,  -0.00000004,   0.27500026,   0.00000000,   0.00000005,  -0.00000000,  -0.00000780,  -0.00000653,   0.00001824,  -0.00000002,  -0.00000272,   0.00000006
  8.00750000,  -0.00000014,  -0.00000010,   0.25000172,  -0.00000000,   0.00000008,  -0.00000000,  -0.00000735,  -0.00000601,   0.00001689,  -0.00000002,  -0.00000257,   0.00000005
  8.00775000,  -0.00000013,  -0.00000009,   0.22500291,   0.00000000,   0.00000009,   0.00000000,  -0.00000690,  -0.00000548,   0.00001554,  -0.00000002,  -0.00000243,   0.00000005
  8.00800000,  -0.00000002,  -0.00000001,   0.20000003,   0.00000000,   0.00000005,  -0.00000000,  -0.00000645,  -0.00000496,   0.00001420,  -0.00000002,  -0.00000228,   0.00000004
  8.00825000,  -0.00000004,  -0.00000002,   0.17500028,   0.00000000,   0.00000006,  -0.00000000,  -0.00000600,  -0.00000443,   0.00001285,  -0.00000002,  -0.00000214,   0.00000004
  8.00850000,  -0.00000011,  -0.00000007,   0.15000178,   0.00000000,   0.00000009,   0.00000000,  -0.00000555,  -0.00000391,   0.00001150,  -0.00000002,  -0.00000199,   0.00000004
  8.00875000,  -0.00000003,  -0.00000002,   0.12499981,   0.00000000,   0.00000005,  -0.00000000,  -0.00000510,  -0.00000338,   0.00001016,  -0.00000001,  -0.00000185,   0.00000003
  8.00900000,  -0.00000005,  -0.00000003,   0.10000039,   0.00000000,   0.00000006,  -0.00000000,  -0.00000465,  -0.00000286,   0.00000881,  -0.00000001,  -0.00000170,   0.00000003
  8.00925000,  -0.00000005,  -0.00000003,   0.07500037,   0.00000000,   0.00000006,  -0.00000000,  -0.00000420,  -0.00000233,   0.00000746,  -0.00000001,  -0.00000156,   0.00000003
  8.00950000,  -0.00000002,  -0.00000001,   0.04999970,   0.00000000,   0.00000005,  -0.00000000,  -0.00000375,  -0.00000181,   0.00000612,  -0.00000001,  -0.00000141,   0.00000002
  8.00975000,  -0.00000005,  -0.00000004,   0.02500031,   0.00000000,   0.00000006,  -0.00000000,  -0.00000330,  -0.00000128,   0.00000477,  -0.00000001,  -0.00000127,   0.00000002
  8.01000000,  -0.00000004,  -0.00000003,   0.00000000,   0.00000000,   0.00000006,  -0.00000000,  -0.00000285,  -0.00000076,   0.00000342,  -0.00000001,  -0.00000112,   0.00000001
  8.14316670,  -0.00000004,  -0.00000003,   0.00000002,   0.00000000,   0.00000006,  -0.00000000,  -0.00000213,  -0.00000051,   0.00000255,  -0.00000001,  -0.00000090,   0.00000001
  8.27633330,  -0.00000004,  -0.00000003,  -0.00000002,   0.00000000,   0.00000006,  -0.00000000,  -0.00000163,  -0.00000046,   0.00000204,  -0.00000000,  -0.00000076,   0.00000001
  8.40950000,  -0.00000004,  -0.00000003,   0.00000008,   0.00000000,   0.00000006,  -0.00000000,  -0.00000126,  -0.00000043,   0.00000166,  -0.00000000,  -0.00000066,   0.00000001
  8.54266670,  -0.00000004,  -0.00000003,   0.00000002,   0.00000000,   0.00000006,  -0.00000000,  -0.00000099,  -0.00000041,   0.00000139,  -0.00000000,  -0.00000058,   0.00000001
  8.67583330,  -0.00000004,  -0.00000003,   0.00000002,   0.00000000,   0.00000006,  -0.00000000,  -0.00000079,  -0.00000039,   0.00000118,  -0.00000000,  -0.00000052,   0.00000001
  8.80900000,  -0.00000004,  -0.00000003,   0.00000003,   0.00000000,   0.00000006,  -0.00000000,  -0.00000065,  -0.00000037,   0.00000103,  -0.00000000,  -0.00000048,   0.00000001
  8.94216670,  -0.00000004,  -0.00000003,   0.00000002,   0.00000000,   0.00000006,  -0.00000000,  -0.00000054,  -0.00000036,   0.00000091,  -0.00000000,  -0.00000044,   0.00000001
  9.07533330,  -0.00000004,  -0.00000003,  -0.00000001,   0.00000000,   0.00000006,  -0.00000000,  -0.00000046,  -0.00000035,   0.00000083,  -0.00000000,  -0.00000041,   0.00000001
  9.20850000,  -0.00000004,  -0.00000003,   0.00000001,   0.00000000,   0.00000006,  -0.00000000,  -0.00000041,  -0.00000034,   0.00000077,  -0.00000000,  -0.00000039,   0.00000000
  9.34166670,  -0.00000004,  -0.00000003,   0.00000001,   0.00000000,   0.00000006,  -0.00000000,  -0.00000037,  -0.00000033,   0.00000072,  -0.00000000,  -0.00000037,   0.00000000
  9.47483330,  -0.00000004,  -0.00000003,   0.00000001,   0.00000000,   0.00000006,  -0.00000000,  -0.00000034,  -0.00000032,   0.00000069,  -0.00000000,  -0.00000035,   0.00000000
  9.60800000,  -0.00000004,  -0.00000003,   0.00000001,   0.00000000,   0.00000006,  -0.00000000,  -0.00000032,  -0.00000032,   0.00000066,  -0.00000000,  -0.00000034,   0.00000000
  9.74116670,  -0.00000004,  -0.00000003,   0.00000000,   0.00000000,   0.00000006,  -0.00000000,  -0.00000030,  -0.00000031,   0.00000064,  -0.00000000,  -0.00000033,   0.00000000
  9.87433330,  -0.00000004,  -0.00000003,  -0.00000001,   0.00000000,   0.00000006,  -0.00000000,  -0.00000029,  -0.00000030,   0.00000062,  -0.00000000,  -0.00000032,   0.00000000
 10.00750000,  -0.00000004,  -0.00000003,  -0.00000000,   0.00000000,   0.00000006,  -0.00000000,  -0.00000029,  -0.00000030,   0.00000061,  -0.00000000,  -0.00000031,   0.00000000
 10.14066700,  -0.00000004,  -0.00000003,   0.00000001,   0.00000000,   0.00000006,  -0.00000000,  -0.00000028,  -0.00000029,   0.00000060,  -0.00000000,  -0.00000030,   0.00000000
 10.27383300,  -0.00000004,  -0.00000003,   0.00000001,   0.00000000,   0.00000006,  -0.00000000,  -0.00000028,  -0.00000029,   0.00000059,  -0.00000000,  -0.00000029,   0.00000000
 10.40700000,  -0.00000004,  -0.00000003,  -0.00000000,   0.00000000,   0.00000006,  -0.00000000,  -0.00000028,  -0.00000028,   0.00000059,  -0.00000000,  -0.00000028,   0.00000000
 10.54016700,  -0.00000004,  -0.00000003,  -0.00000001,   0.00000000,   0.00000006,  -0.00000000,  -0.00000028,  -0.00000028,   0.00000058,  -0.00000000,  -0.00000028,   0.00000000
 10.67333300,  -0.00000004,  -0.00000003,   0.00000000,   0.00000000,   0.00000006,  -0.00000000,  -0.00000028,  -0.00000027,   0.00000058,  -0.00000000,  -0.00000027,   0.00000000
 10.80650000,  -0.00000004,  -0.00000003,   0.00000000,   0.00000000,   0.00000006,  -0.00000000,  -0.00000028,  -0.00000027,   0.00000057,  -0.00000000,  -0.00000027,   0.00000000
 10.93966700,  -0.00000004,  -0.00000003,  -0.00000002,   0.00000000,   0.00000006,  -0.00000000,  -0.00000028,  -0.00000026,   0.00000057,  -0.00000000,  -0.00000026,   0.00000000
 11.07283300,  -0.00000004,  -0.00000003,   0.00000001,   0.00000000,   0.00000006,  -0.00000000,  -0.00000028,  -0.00000026,   0.00000057,  -0.00000000,  -0.00000026,   0.00000000
 11.20600000,  -0.00000004,  -0.00000003,  -0.00000000,   0.00000000,   0.00000006,  -0.00000000,  -0.00000028,  -0.00000025,   0.00000056,  -0.00000000,  -0.00000025,   0.00000000
 11.33916700,  -0.00000004,  -0.00000003,   0.00000001,   0.00000000,   0.00000006,  -0.00000000,  -0.00000028,  -0.00000025,   0.00000056,  -0.00000000,  -0.00000025,   0.00000000
 11.47233300,  -0.00000004,  -0.00000003,   0.00000001,   0.00000000,   0.00000006,  -0.00000000,  -0.00000028,  -0.00000025,   0.00000056,  -0.00000000,  -0.00000024,   0.00000000
 11.60550000,  -0.00000004,  -0.00000003,   0.00000000,   0.00000000,   0.00000006,  -0.00000000,  -0.00000029,  -0.00000024,   0.00000055,  -0.00000000,  -0.00000024,   0.00000000
 11.73866700,  -0.00000004,  -0.00000003,  -0.00000000,   0.00000000,   0.00000006,  -0.00000000,  -0.00000029,  -0.00000024,   0.00000055,  -0.00000000,  -0.00000023,   0.00000000
 11.87183300,  -0.00000004,  -0.00000003,   0.00000000,   0.00000000,   0.00000006,  -0.00000000,  -0.00000029,  -0.00000023,   0.00000055,  -0.00000000,  -0.00000023,   0.00000000
 12.00500000,  -0.00000004,  -0.00000003,   0.00000000,   0.00000000,   0.00000006,  -0.00000000,  -0.00000029,  -0.00000023,   0.00000055,  -0.00000000,  -0.00000023,   0.00000000
 12.13816700,  -0.00000004,  -0.00000003,   0.00000000,   0.00000000,   0.00000006,  -0.00000000,  -0.00000029,  -0.00000023,   0.00000055,  -0.00000000,  -0.00000022,   0.00000000
 12.27133300,  -0.00000004,  -0.00000003,  -0.00000001,   0.00000000,   0.00000006,  -0.00000000,  -0.00000029,  -0.00000022,   0.00000054,  -0.00000000,  -0.00000022,   0.00000000
 12.40450000,  -0.00000004,  -0.00000003,  -0.00000000,   0.00000000,   0.00000006,  -0.00000000,  -0.00000029,  -0.00000022,   0.00000054,  -0.00000000,  -0.00000022,   0.00000000
 12.53766700,  -0.00000004,  -0.00000003,   0.00000000,   0.00000000,   0.00000006,  -0.00000000,  -0.00000030,  -0.00000022,   0.00000054,  -0.00000000,  -0.00000021,   0.00000000
 12.67083300,  -0.00000004,  -0.00000003,  -0.00000000,   0.00000000,   0.00000006,  -0.00000000,  -0.00000030,  -0.00000022,   0.00000054,  -0.00000000,  -0.00000021,   0.00000000
 12.80400000,  -0.00000004,  -0.00000003,   0.00000001,   0.00000000,   0.00000006,  -0.00000000,  -0.00000030,  -0.00000021,   0.00000053,  -0.00000000,  -0.00000021,   0.00000000
 12.93716700,  -0.00000004,  -0.00000003,  -0.00000000,   0.00000000,   0.00000006,  -0.00000000,  -0.00000030,  -0.00000021,   0.00000053,  -0.00000000,  -0.00000020,   0.00000000
 13.07033300,  -0.00000004,  -0.00000003,   0.00000001,   0.00000000,   0.00000006,  -0.00000000,  -0.00000030,  -0.00000021,   0.00000053,  -0.00000000,  -0.00000020,   0.00000000
 13.20350000,  -0.00000004,  -0.00000003,   0.00000000,   0.00000000,   0.00000006,  -0.00000000,  -0.00000030,  -0.00000020,   0.00000053,  -0.00000000,  -0.00000020,   0.00000000
 13.33666700,  -0.00000004,  -0.00000003,   0.00000000,   0.00000000,   0.00000006,  -0.00000000,  -0.00000030,  -0.00000020,   0.00000053,  -0.00000000,  -0.00000019,   0.00000000
 13.46983300,  -0.00000004,  -0.00000003,  -0.00000001,   0.00000000,   0.00000006,  -0.00000000,  -0.00000030,  -0.00000020,   0.00000052,  -0.00000000,  -0.00000019,   0.00000000
 13.60300000,  -0.00000004,  -0.00000003,  -0.00000000,   0.00000000,   0.00000006,  -0.00000000,  -0.00000030,  -0.00000020,   0.00000052,  -0.00000000,  -0.00000019,   0.00000000
 13.73616700,  -0.00000004,  -0.00000003,  -0.00000000,   0.00000000,   0.00000006,  -0.00000000,  -0.00000030,  -0.00000019,   0.00000052,  -0.00000000,  -0.00000019,   0.00000000
 13.86933300,  -0.00000004,  -0.00000003,  -0.00000000,   0.00000000,   0.00000006,  -0.00000000,  -0.00000030,  -0.00000019,   0.00000052,  -0.00000000,  -0.00000018,   0.00000000
 14.00250000,  -0.00000004,  -0.00000003,  -0.00000000,   0.00000000,   0.00000006,  -0.00000000,  -0.00000030,  -0.00000019,   0.00000052,  -0.00000000,  -0.00000018,   0.00000000
 14.13566700,  -0.00000004,  -0.00000003,  -0.00000000,   0.00000000,   0.00000006,  -0.00000000,  -0.00000030,  -0.00000019,   0.00000052,  -0.00000000,  -0.00000018,   0.00000000
 14.26883300,  -0.00000004,  -0.00000003,   0.00000001,   0.00000000,   0.00000006,  -0.00000000,  -0.00000031,  -0.00000019,   0.00000051,  -0.00000000,  -0.00000018,   0.00000000
 14.40200000,  -0.00000004,  -0.00000003,   0.00000000,   0.00000000,   0.00000006,  -0.00000000,  -0.00000031,  -0.00000018,   0.00000051,  -0.00000000,  -0.00000017,   0.00000000
 14.53516700,  -0.00000004,  -0.00000003,  -0.00000001,   0.00000000,   0.00000006,  -0.00000000,  -0.00000031,  -0.00000018,   0.00000051,  -0.00000000,  -0.00000017,   0.00000000
 14.66833300,  -0.00000004,  -0.00000003,   0.00000000,   0.00000000,   0.00000006,  -0.00000000,  -0.00000031,  -0.00000018,   0.00000051,  -0.00000000,  -0.00000017,   0.00000000
 14.80150000,  -0.00000004,  -0.00000003,   0.00000000,   0.00000000,   0.00000006,  -0.00000000,  -0.00000031,  -0.00000018,   0.00000051,  -0.00000000,  -0.00000017,   0.00000000
 14.93466700,  -0.00000004,  -0.00000003,   0.00000000,   0.00000000,   0.00000006,  -0.00000000,  -0.00000031,  -0.00000018,   0.00000050,  -0.00000000,  -0.00000017,   0.00000000
 15.06783300,  -0.00000004,  -0.00000003,   0.00000000,   0.00000000,   0.00000006,  -0.00000000,  -0.00000031,  -0.00000017,   0.00000050,  -0.00000000,  -0.00000016,   0.00000000
 15.20100000,  -0.00000004,  -0.00000003,   0.00000000,   0.00000000,   0.00000006,  -0.00000000,  -0.00000031,  -0.00000017,   0.00000050,  -0.00000000,  -0.00000016,   0.00000000
 15.33416700,  -0.00000004,  -0.00000003,   0.00000000,   0.00000000,   0.00000006,  -0.00000000,  -0.00000031,  -0.00000017,   0.00000050,  -0.00000000,  -0.00000016,   0.00000000
 15.46733300,  -0.00000004,  -0.00000003,   0.00000000,   0.00000000,   0.00000006,  -0.00000000,  -0.00000031,  -0.00000017,   0.00000050,  -0.00000000,  -0.00000016,   0.00000000
 15.60050000,  -0.00000004,  -0.00000003,   0.00000000,   0.00000000,   0.00000006,  -0.00000000,  -0.00000031,  -0.00000017,   0.00000050,  -0.00000000,  -0.00000016,   0.00000000
 15.73366700,  -0.00000004,  -0.00000003,   0.00000000,   0.00000000,   0.00000006,  -0.00000000,  -0.00000031,  -0.00000016,   0.00000049,  -0.00000000,  -0.00000016,   0.00000000
 15.86683300,  -0.00000004,  -0.00000003,   0.00000000,   0.00000000,   0.00000006,  -0.00000000,  -0.00000031,  -0.00000016,   0.00000049,  -0.00000000,  -0.00000016,   0.00000000
 16.00000000,  -0.00000004,  -0.00000003,   0.00000000,   0.00000000,   0.00000006,  -0.00000000,  -0.00000031,  -0.00000016,   0.00000049,  -0.00000000,  -0.00000015,   0.00000000
