Time (m)    , Stress_xx (MPa), Stress_yy (MPa), Stress_zz (MPa), Stress_xy (MPa), Stress_xz (MPa), Stress_yz (MPa), Strain_xx   , Strain_yy   , Strain_zz   , Strain_xy   , Strain_xz   , Strain_yz   
 0.000000000,  0.000000000,  0.000000000,  0.000000000,  0.000000000,  0.000000000,  0.000000000,  0.000000000,  0.000000000,  0.000000000,  0.000000000,  0.000000000,  0.000000000
 0.000500000,  0.000000016,  0.000000019,  0.050000206,  0.000000000, -0.000000011,  0.000000000, -0.000000856, -0.000000976,  0.000002605, -0.000000001, -0.000000250, -0.000000006
 0.001000000,  0.000000273,  0.000000211,  0.100002104,  0.000000003, -0.000000046,  0.000000004, -0.000001747, -0.000001997,  0.000005269, -0.000000003, -0.000000510, -0.000000009
 0.001500000,  0.000000282,  0.000000447,  0.150001166,  0.000000008,  0.000000081,  0.000000001, -0.000002644, -0.000003035,  0.000007941, -0.000000006, -0.000000778, -0.000000015
 0.002000000, -0.000000292,  0.000001389,  0.199999531,  0.000000006,  0.000000436, -0.000000003, -0.000003540, -0.000004075,  0.000010620, -0.000000008, -0.000001042, -0.000000018
 0.002500000, -0.000000190,  0.000000965,  0.250000813,  0.000000004,  0.000000236,  0.000000001, -0.000004436, -0.000005117,  0.000013300, -0.000000009, -0.000001309, -0.000000026
 0.003000000, -0.000000023,  0.000000654,  0.299999476,  0.000000004,  0.000000110,  0.000000001, -0.000005334, -0.000006161,  0.000015982, -0.000000010, -0.000001574, -0.000000031
 0.003500000, -0.000000001,  0.000000308,  0.350000447,  0.000000001,  0.000000049,  0.000000000, -0.000006233, -0.000007209,  0.000018664, -0.000000014, -0.000001844, -0.000000035
 0.004000000, -0.000000523, -0.000001055,  0.400026984,  0.000000001,  0.000000244,  0.000000000, -0.000007129, -0.000008254,  0.000021345, -0.000000015, -0.000002108, -0.000000041
 0.004500000,  0.000000099, -0.000000126,  0.449999967,  0.000000000, -0.000000066,  0.000000000, -0.000008028, -0.000009299,  0.000024028, -0.000000016, -0.000002377, -0.000000045
 0.005000000,  0.000000005,  0.000000143,  0.499995770, -0.000000001, -0.000000026, -0.000000003, -0.000008924, -0.000010347,  0.000026711, -0.000000019, -0.000002645, -0.000000049
 0.005500000, -0.000000234, -0.000000260,  0.550004720, -0.000000003,  0.000000030,  0.000000003, -0.000009822, -0.000011395,  0.000029395, -0.000000024, -0.000002911, -0.000000054
 0.006000000,  0.000000490,  0.000000148,  0.599987574, -0.000000006, -0.000000271, -0.000000001, -0.000010716, -0.000012442,  0.000032078, -0.000000022, -0.000003181, -0.000000060
 0.006500000, -0.000000061, -0.000000120,  0.649999115, -0.000000001, -0.000000039,  0.000000000, -0.000011614, -0.000013488,  0.000034761, -0.000000025, -0.000003446, -0.000000065
 0.007000000, -0.000000110, -0.000000138,  0.700001076, -0.000000003, -0.000000009,  0.000000001, -0.000012511, -0.000014534,  0.000037445, -0.000000029, -0.000003714, -0.000000070
 0.007500000, -0.000000774, -0.000000649,  0.750019187, -0.000000001,  0.000000182, -0.000000001, -0.000013410, -0.000015584,  0.000040130, -0.000000029, -0.000003984, -0.000000075
 0.008000000, -0.000000441, -0.000000356,  0.800010736, -0.000000001,  0.000000102,  0.000000000, -0.000014308, -0.000016630,  0.000042814, -0.000000032, -0.000004251, -0.000000081
 0.008500000,  0.000000149,  0.000000086,  0.849996641, -0.000000001, -0.000000083,  0.000000003, -0.000015205, -0.000017679,  0.000045498, -0.000000032, -0.000004519, -0.000000086
 0.009000000, -0.000000139, -0.000000085,  0.900003900,  0.000000000,  0.000000059,  0.000000003, -0.000016104, -0.000018725,  0.000048181, -0.000000036, -0.000004786, -0.000000089
 0.009500000,  0.000000418,  0.000000325,  0.949990771, -0.000000003, -0.000000194, -0.000000001, -0.000017001, -0.000019773,  0.000050865, -0.000000037, -0.000005051, -0.000000095
 0.010000000,  0.000000358,  0.000000271,  0.999992341,  0.000000000, -0.000000180,  0.000000003, -0.000017901, -0.000020824,  0.000053550, -0.000000039, -0.000005321, -0.000000100
 0.076583330,  0.000000956,  0.000000074,  0.999984390,  0.000000039, -0.000000939,  0.000000009, -0.000018306, -0.000021039,  0.000054088, -0.000000039, -0.000005456, -0.000000102
 0.143166670, -0.000000791, -0.000001169,  0.999988941, -0.000000012, -0.000000390, -0.000000008, -0.000018636, -0.000021083,  0.000054436, -0.000000041, -0.000005544, -0.000000102
 0.209750000, -0.000001092, -0.000001248,  0.999988295, -0.000000035, -0.000000377, -0.000000007, -0.000018922, -0.000021111,  0.000054734, -0.000000041, -0.000005618, -0.000000102
 0.276333330, -0.000005572,  0.000002515,  0.999999336, -0.000000044, -0.000003864,  0.000000000, -0.000019170, -0.000021133,  0.000054984, -0.000000041, -0.000005686, -0.000000105
 0.342916670, -0.000003064,  0.000001623,  0.999997539, -0.000000043, -0.000002164, -0.000000005, -0.000019377, -0.000021150,  0.000055199, -0.000000041, -0.000005740, -0.000000106
 0.409500000, -0.000003564,  0.000002671,  1.000002226, -0.000000022, -0.000002099, -0.000000005, -0.000019551, -0.000021169,  0.000055383, -0.000000041, -0.000005790, -0.000000106
 0.476083330, -0.000005460,  0.000004995,  1.000009191, -0.000000011, -0.000004265, -0.000000003, -0.000019701, -0.000021180,  0.000055538, -0.000000043, -0.000005835, -0.000000105
 0.542666670, -0.000001929,  0.000002671,  0.999999284, -0.000000011, -0.000002154, -0.000000001, -0.000019830, -0.000021193,  0.000055671, -0.000000043, -0.000005869, -0.000000106
 0.609250000, -0.000001531,  0.000002275,  0.999997030, -0.000000004, -0.000001216, -0.000000005, -0.000019938, -0.000021204,  0.000055783, -0.000000043, -0.000005901, -0.000000106
 0.675833330, -0.000003081,  0.000003230,  1.000005150, -0.000000001, -0.000002390, -0.000000006, -0.000020030, -0.000021215,  0.000055884, -0.000000043, -0.000005931, -0.000000106
 0.742416670, -0.000003097,  0.000002785,  1.000015118, -0.000000001, -0.000002632,  0.000000000, -0.000020109, -0.000021224,  0.000055966, -0.000000041, -0.000005955, -0.000000107
 0.809000000, -0.000001626,  0.000002049,  1.000006246, -0.000000005, -0.000001741, -0.000000010, -0.000020174, -0.000021233,  0.000056039, -0.000000041, -0.000005976, -0.000000109
 0.875583330, -0.000000396,  0.000001639,  0.999992480, -0.000000005, -0.000000995, -0.000000003, -0.000020229, -0.000021243,  0.000056099, -0.000000041, -0.000005996, -0.000000109
 0.942166670, -0.000000884,  0.000001625,  0.999997455, -0.000000004, -0.000001102,  0.000000001, -0.000020276, -0.000021250,  0.000056151, -0.000000041, -0.000006014, -0.000000108
 1.008750000, -0.000001299,  0.000001428,  1.000004403, -0.000000004, -0.000001244,  0.000000003, -0.000020317, -0.000021259,  0.000056199, -0.000000041, -0.000006030, -0.000000108
 1.075333300, -0.000000669,  0.000001120,  0.999997511, -0.000000005, -0.000000975, -0.000000004, -0.000020355, -0.000021264,  0.000056239, -0.000000041, -0.000006044, -0.000000108
 1.141916700, -0.000000231,  0.000000867,  0.999993523, -0.000000004, -0.000000646, -0.000000003, -0.000020384, -0.000021270,  0.000056271, -0.000000041, -0.000006055, -0.000000108
 1.208500000, -0.000000499,  0.000000934,  0.999996236, -0.000000003, -0.000000748,  0.000000003, -0.000020408, -0.000021278,  0.000056301, -0.000000041, -0.000006067, -0.000000106
 1.275083300, -0.000000655,  0.000000809,  1.000000191, -0.000000003, -0.000000829,  0.000000004, -0.000020430, -0.000021284,  0.000056330, -0.000000041, -0.000006078, -0.000000106
 1.341666700, -0.000000246,  0.000000655,  0.999995944, -0.000000004, -0.000000654,  0.000000004, -0.000020449, -0.000021289,  0.000056351, -0.000000041, -0.000006087, -0.000000106
 1.408250000,  0.000000061,  0.000000504,  0.999992756,  0.000000000, -0.000000416,  0.000000000, -0.000020464, -0.000021294,  0.000056373, -0.000000041, -0.000006096, -0.000000106
 1.474833300,  0.000000016,  0.000000526,  0.999993250, -0.000000001, -0.000000415, -0.000000003, -0.000020478, -0.000021299,  0.000056390, -0.000000041, -0.000006104, -0.000000108
 1.541416700, -0.000000150,  0.000000499,  0.999996480,  0.000000000, -0.000000489,  0.000000003, -0.000020490, -0.000021304,  0.000056410, -0.000000041, -0.000006111, -0.000000109
 1.608000000, -0.000000032,  0.000000444,  0.999995681,  0.000000001, -0.000000444,  0.000000003, -0.000020500, -0.000021309,  0.000056422, -0.000000041, -0.000006119, -0.000000109
 1.674583300,  0.000001503,  0.000000644,  0.999961076,  0.000000001, -0.000000555,  0.000000004, -0.000020507, -0.000021314,  0.000056434, -0.000000041, -0.000006126, -0.000000109
 1.741166700,  0.000001823,  0.000000667,  0.999953473,  0.000000003, -0.000000503,  0.000000009, -0.000020515, -0.000021319,  0.000056446, -0.000000041, -0.000006133, -0.000000109
 1.807750000,  0.000000776,  0.000000514,  0.999979399,  0.000000000, -0.000000334,  0.000000000, -0.000020524, -0.000021324,  0.000056459, -0.000000041, -0.000006139, -0.000000110
 1.874333300,  0.000000325,  0.000000410,  0.999991137,  0.000000001, -0.000000290, -0.000000001, -0.000020529, -0.000021329,  0.000056469, -0.000000041, -0.000006144, -0.000000110
 1.940916700,  0.000001509,  0.000000712,  0.999961814,  0.000000000, -0.000000444,  0.000000004, -0.000020535, -0.000021330,  0.000056478, -0.000000041, -0.000006150, -0.000000110
 2.007500000,  0.000001637,  0.000000745,  0.999958258,  0.000000001, -0.000000401, -0.000000001, -0.000020536, -0.000021338,  0.000056486, -0.000000041, -0.000006154, -0.000000110
 2.074083300,  0.000000343,  0.000000326,  0.999992304,  0.000000000, -0.000000180, -0.000000001, -0.000020544, -0.000021339,  0.000056497, -0.000000041, -0.000006160, -0.000000110
 2.140666700,  0.000000310,  0.000000370,  0.999992406,  0.000000001, -0.000000291,  0.000000000, -0.000020546, -0.000021345,  0.000056505, -0.000000041, -0.000006165, -0.000000110
 2.207250000,  0.000000928,  0.000000432,  0.999977519,  0.000000003, -0.000000230,  0.000000000, -0.000020548, -0.000021349,  0.000056510, -0.000000041, -0.000006170, -0.000000110
 2.273833300,  0.000000449,  0.000000253,  0.999991300,  0.000000003, -0.000000082,  0.000000003, -0.000020554, -0.000021354,  0.000056520, -0.000000041, -0.000006174, -0.000000110
 2.340416700,  0.000000205,  0.000000231,  0.999996577,  0.000000001, -0.000000163, -0.000000000, -0.000020556, -0.000021359,  0.000056529, -0.000000041, -0.000006180, -0.000000110
 2.407000000,  0.000000834,  0.000000482,  0.999978290,  0.000000003, -0.000000251, -0.000000001, -0.000020558, -0.000021360,  0.000056532, -0.000000041, -0.000006184, -0.000000110
 2.473583300,  0.000000461,  0.000000305,  0.999989907,  0.000000001, -0.000000145,  0.000000001, -0.000020561, -0.000021365,  0.000056540, -0.000000041, -0.000006187, -0.000000110
 2.540166700,  0.000000149,  0.000000114,  0.999999284,  0.000000003, -0.000000018, -0.000000006, -0.000020565, -0.000021370,  0.000056548, -0.000000041, -0.000006192, -0.000000110
 2.606750000,  0.000000124,  0.000000098,  0.999999572,  0.000000000,  0.000000023,  0.000000003, -0.000020566, -0.000021372,  0.000056554, -0.000000041, -0.000006195, -0.000000110
 2.673333300,  0.000000532,  0.000000376,  0.999987218,  0.000000000, -0.000000231,  0.000000001, -0.000020567, -0.000021379,  0.000056560, -0.000000041, -0.000006199, -0.000000110
 2.739916700,  0.000000389,  0.000000293,  0.999991840,  0.000000001, -0.000000172,  0.000000000, -0.000020569, -0.000021380,  0.000056566, -0.000000041, -0.000006204, -0.000000110
 2.806500000,  0.000000551,  0.000000372,  0.999986166, -0.000000001, -0.000000160,  0.000000003, -0.000020571, -0.000021385,  0.000056570, -0.000000041, -0.000006206, -0.000000110
 2.873083300,  0.000000625,  0.000000425,  0.999983910,  0.000000000, -0.000000259,  0.000000003, -0.000020575, -0.000021389,  0.000056576, -0.000000041, -0.000006213, -0.000000110
 2.939666700,  0.000001380,  0.000000916,  0.999961763,  0.000000001, -0.000000545,  0.000000003, -0.000020576, -0.000021390,  0.000056580, -0.000000041, -0.000006216, -0.000000110
 3.006250000,  0.000000687,  0.000000477,  0.999982076,  0.000000001, -0.000000295,  0.000000000, -0.000020576, -0.000021396,  0.000056587, -0.000000041, -0.000006219, -0.000000110
 3.072833300,  0.000000067,  0.000000095,  1.000001071, -0.000000001, -0.000000017,  0.000000001, -0.000020577, -0.000021399,  0.000056595, -0.000000041, -0.000006223, -0.000000110
 3.139416700,  0.000000244,  0.000000208,  0.999995872,  0.000000000, -0.000000097,  0.000000000, -0.000020580, -0.000021401,  0.000056600, -0.000000041, -0.000006226, -0.000000110
 3.206000000, -0.000000034,  0.000000031,  1.000003861,  0.000000000,  0.000000026,  0.000000001, -0.000020584, -0.000021408,  0.000056604, -0.000000041, -0.000006229, -0.000000110
 3.272583300,  0.000000509,  0.000000376,  0.999987354,  0.000000000, -0.000000211,  0.000000000, -0.000020585, -0.000021410,  0.000056610, -0.000000041, -0.000006234, -0.000000110
 3.339166700,  0.000000856,  0.000000581,  0.999977074,  0.000000001, -0.000000385,  0.000000000, -0.000020586, -0.000021410,  0.000056615, -0.000000041, -0.000006236, -0.000000110
 3.405750000,  0.000000794,  0.000000548,  0.999979089,  0.000000003, -0.000000356,  0.000000000, -0.000020587, -0.000021418,  0.000056620, -0.000000041, -0.000006239, -0.000000110
 3.472333300,  0.000000841,  0.000000590,  0.999977255,  0.000000003, -0.000000375,  0.000000000, -0.000020587, -0.000021420,  0.000056626, -0.000000041, -0.000006244, -0.000000110
 3.538916700,  0.000000239,  0.000000212,  0.999995149,  0.000000000, -0.000000101,  0.000000000, -0.000020592, -0.000021421,  0.000056630, -0.000000041, -0.000006246, -0.000000110
 3.605500000,  0.000000232,  0.000000193,  0.999995884,  0.000000000, -0.000000129,  0.000000001, -0.000020595, -0.000021427,  0.000056637, -0.000000041, -0.000006249, -0.000000110
 3.672083300,  0.000000581,  0.000000424,  0.999985311,  0.000000001, -0.000000270,  0.000000003, -0.000020596, -0.000021430,  0.000056641, -0.000000041, -0.000006251, -0.000000110
 3.738666700, -0.000000305, -0.000000092,  1.000011508,  0.000000000,  0.000000156,  0.000000001, -0.000020598, -0.000021432,  0.000056647, -0.000000041, -0.000006256, -0.000000110
 3.805250000,  0.000000346,  0.000000262,  0.999992484,  0.000000000, -0.000000166,  0.000000003, -0.000020598, -0.000021435,  0.000056654, -0.000000041, -0.000006259, -0.000000110
 3.871833300,  0.000000379,  0.000000286,  0.999991548, -0.000000001, -0.000000176,  0.000000000, -0.000020600, -0.000021440,  0.000056659, -0.000000041, -0.000006261, -0.000000110
 3.938416700,  0.000000609,  0.000000465,  0.999983570,  0.000000001, -0.000000253,  0.000000004, -0.000020604, -0.000021440,  0.000056664, -0.000000041, -0.000006266, -0.000000110
 4.005000000,  0.000000611,  0.000000432,  0.999984661, -0.000000001, -0.000000284,  0.000000000, -0.000020605, -0.000021444,  0.000056668, -0.000000041, -0.000006268, -0.000000110
 4.071583300,  0.000000052,  0.000000116,  1.000000951, -0.000000003, -0.000000010,  0.000000003, -0.000020607, -0.000021450,  0.000056675, -0.000000041, -0.000006271, -0.000000109
 4.138166700,  0.000000744,  0.000000524,  0.999980341, -0.000000001, -0.000000323,  0.000000003, -0.000020607, -0.000021450,  0.000056678, -0.000000041, -0.000006275, -0.000000109
 4.204750000,  0.000000380,  0.000000283,  0.999991319,  0.000000000, -0.000000204,  0.000000006, -0.000020609, -0.000021454,  0.000056683, -0.000000041, -0.000006276, -0.000000109
 4.271333300,  0.000000422,  0.000000316,  0.999990247, -0.000000001, -0.000000197,  0.000000003, -0.000020614, -0.000021456,  0.000056689, -0.000000041, -0.000006279, -0.000000109
 4.337916700, -0.000000010,  0.000000054,  1.000003479, -0.000000001,  0.000000006,  0.000000001, -0.000020616, -0.000021460,  0.000056695, -0.000000041, -0.000006284, -0.000000109
 4.404500000, -0.000000412, -0.000000187,  1.000014881, -0.000000003,  0.000000185,  0.000000003, -0.000020618, -0.000021461,  0.000056701, -0.000000041, -0.000006286, -0.000000109
 4.471083300,  0.000000046,  0.000000070,  1.000001329, -0.000000001, -0.000000031,  0.000000001, -0.000020618, -0.000021464,  0.000056705, -0.000000041, -0.000006288, -0.000000109
 4.537666700,  0.000000564,  0.000000396,  0.999985888,  0.000000000, -0.000000276,  0.000000001, -0.000020619, -0.000021469,  0.000056709, -0.000000041, -0.000006291, -0.000000109
 4.604250000,  0.000000700,  0.000000489,  0.999981246,  0.000000001, -0.000000331,  0.000000003, -0.000020622, -0.000021470,  0.000056714, -0.000000041, -0.000006295, -0.000000109
 4.670833300,  0.000001019,  0.000000706,  0.999971451,  0.000000000, -0.000000456, -0.000000000, -0.000020626, -0.000021472,  0.000056719, -0.000000041, -0.000006296, -0.000000109
 4.737416700,  0.000000647,  0.000000459,  0.999983283,  0.000000001, -0.000000303,  0.000000001, -0.000020627, -0.000021475,  0.000056725, -0.000000041, -0.000006299, -0.000000109
 4.804000000,  0.000000187,  0.000000179,  0.999996630, -0.000000001, -0.000000100,  0.000000004, -0.000020629, -0.000021480,  0.000056730, -0.000000041, -0.000006303, -0.000000109
 4.870583300,  0.000000249,  0.000000214,  0.999995325, -0.000000001, -0.000000112,  0.000000003, -0.000020629, -0.000021480,  0.000056735, -0.000000041, -0.000006305, -0.000000109
 4.937166700, -0.000000045,  0.000000024,  1.000004156,  0.000000000,  0.000000009,  0.000000004, -0.000020634, -0.000021484,  0.000056740, -0.000000041, -0.000006306, -0.000000109
 5.003750000, -0.000000214, -0.000000061,  1.000008962, -0.000000004,  0.000000097, -0.000000000, -0.000020637, -0.000021489,  0.000056746, -0.000000041, -0.000006310, -0.000000109
 5.070333300,  0.000000808,  0.000000584,  0.999978331,  0.000000003, -0.000000365,  0.000000001, -0.000020637, -0.000021490,  0.000056749, -0.000000041, -0.000006312, -0.000000109
 5.136916700,  0.000001039,  0.000000709,  0.999971204,  0.000000001, -0.000000480,  0.000000005, -0.000020639, -0.000021490,  0.000056754, -0.000000041, -0.000006315, -0.000000109
 5.203500000,  0.000000673,  0.000000453,  0.999982002,  0.000000000, -0.000000334,  0.000000005, -0.000020642, -0.000021494,  0.000056758, -0.000000041, -0.000006316, -0.000000110
 5.270083300,  0.000000209,  0.000000176,  0.999996303,  0.000000000, -0.000000117,  0.000000004, -0.000020644, -0.000021497,  0.000056765, -0.000000041, -0.000006320, -0.000000110
 5.336666700,  0.000000296,  0.000000230,  0.999994166,  0.000000000, -0.000000151,  0.000000003, -0.000020648, -0.000021500,  0.000056769, -0.000000041, -0.000006322, -0.000000110
 5.403250000, -0.000000149, -0.000000032,  1.000006614, -0.000000001,  0.000000059,  0.000000004, -0.000020648, -0.000021501,  0.000056774, -0.000000041, -0.000006325, -0.000000110
 5.469833300,  0.000000149,  0.000000146,  0.999998153,  0.000000000, -0.000000077,  0.000000003, -0.000020649, -0.000021504,  0.000056779, -0.000000041, -0.000006325, -0.000000110
 5.536416700,  0.000000287,  0.000000249,  0.999994288,  0.000000000, -0.000000139,  0.000000004, -0.000020654, -0.000021506,  0.000056784, -0.000000041, -0.000006330, -0.000000110
 5.603000000,  0.000000525,  0.000000379,  0.999986784,  0.000000000, -0.000000244, -0.000000000, -0.000020656, -0.000021510,  0.000056788, -0.000000041, -0.000006332, -0.000000110
 5.669583300,  0.000000630,  0.000000431,  0.999983705,  0.000000000, -0.000000295,  0.000000004, -0.000020657, -0.000021511,  0.000056793, -0.000000041, -0.000006335, -0.000000110
 5.736166700,  0.000000079,  0.000000104,  1.000000319,  0.000000000, -0.000000055,  0.000000003, -0.000020659, -0.000021514,  0.000056797, -0.000000041, -0.000006335, -0.000000110
 5.802750000,  0.000000231,  0.000000191,  0.999996040, -0.000000001, -0.000000125,  0.000000004, -0.000020661, -0.000021516,  0.000056802, -0.000000041, -0.000006336, -0.000000110
 5.869333300,  0.000000393,  0.000000296,  0.999991057, -0.000000001, -0.000000191,  0.000000003, -0.000020665, -0.000021520,  0.000056809, -0.000000041, -0.000006341, -0.000000110
 5.935916700,  0.000000745,  0.000000508,  0.999980789,  0.000000000, -0.000000350,  0.000000004, -0.000020668, -0.000021520,  0.000056813, -0.000000041, -0.000006344, -0.000000110
 6.002500000,  0.000000144,  0.000000139,  0.999999132, -0.000000001, -0.000000088,  0.000000003, -0.000020668, -0.000021524,  0.000056816, -0.000000041, -0.000006345, -0.000000111
 6.069083300,  0.000000509,  0.000000379,  0.999987270, -0.000000001, -0.000000236,  0.000000000, -0.000020670, -0.000021526,  0.000056823, -0.000000041, -0.000006345, -0.000000111
 6.135666700,  0.000000311,  0.000000244,  0.999993651, -0.000000001, -0.000000158,  0.000000001, -0.000020672, -0.000021528,  0.000056826, -0.000000041, -0.000006349, -0.000000111
 6.202250000,  0.000000001,  0.000000068,  1.000002790,  0.000000001, -0.000000006,  0.000000000, -0.000020677, -0.000021530,  0.000056834, -0.000000041, -0.000006353, -0.000000111
 6.268833300, -0.000000346, -0.000000158,  1.000013149, -0.000000001,  0.000000150,  0.000000001, -0.000020677, -0.000021531,  0.000056839, -0.000000041, -0.000006355, -0.000000111
 6.335416700,  0.000000359,  0.000000265,  0.999991777, -0.000000001, -0.000000180,  0.000000004, -0.000020679, -0.000021534,  0.000056841, -0.000000040, -0.000006355, -0.000000111
 6.402000000,  0.000000629,  0.000000444,  0.999984094, -0.000000001, -0.000000305,  0.000000001, -0.000020682, -0.000021538,  0.000056845, -0.000000040, -0.000006355, -0.000000111
 6.468583300,  0.000000360,  0.000000285,  0.999992300,  0.000000000, -0.000000169,  0.000000001, -0.000020686, -0.000021539,  0.000056851, -0.000000040, -0.000006360, -0.000000111
 6.535166700,  0.000000151,  0.000000139,  0.999998014,  0.000000000, -0.000000091,  0.000000004, -0.000020688, -0.000021540,  0.000056855, -0.000000040, -0.000006362, -0.000000111
 6.601750000,  0.000000683,  0.000000479,  0.999982589, -0.000000001, -0.000000319,  0.000000000, -0.000020689, -0.000021541,  0.000056861, -0.000000040, -0.000006365, -0.000000111
 6.668333300,  0.000000064,  0.000000094,  1.000001080, -0.000000001, -0.000000045,  0.000000003, -0.000020692, -0.000021546,  0.000056865, -0.000000040, -0.000006365, -0.000000111
 6.734916700,  0.000000611,  0.000000431,  0.999984390, -0.000000001, -0.000000293,  0.000000003, -0.000020694, -0.000021547,  0.000056869, -0.000000040, -0.000006365, -0.000000111
 6.801500000, -0.000000163, -0.000000038,  1.000007849, -0.000000001,  0.000000071,  0.000000000, -0.000020698, -0.000021549,  0.000056874, -0.000000040, -0.000006370, -0.000000111
 6.868083300,  0.000000369,  0.000000277,  0.999992240, -0.000000001, -0.000000182,  0.000000003, -0.000020699, -0.000021550,  0.000056880, -0.000000040, -0.000006373, -0.000000111
 6.934666700,  0.000000760,  0.000000520,  0.999980189, -0.000000001, -0.000000358,  0.000000003, -0.000020703, -0.000021551,  0.000056883, -0.000000040, -0.000006374, -0.000000111
 7.001250000,  0.000000435,  0.000000326,  0.999990071, -0.000000001, -0.000000210,  0.000000004, -0.000020704, -0.000021557,  0.000056886, -0.000000040, -0.000006375, -0.000000111
 7.067833300,  0.000000784,  0.000000536,  0.999979611,  0.000000000, -0.000000364,  0.000000003, -0.000020708, -0.000021557,  0.000056891, -0.000000040, -0.000006375, -0.000000111
 7.134416700,  0.000000411,  0.000000319,  0.999990113, -0.000000001, -0.000000196,  0.000000002, -0.000020709, -0.000021560,  0.000056898, -0.000000040, -0.000006378, -0.000000111
 7.201000000,  0.000000746,  0.000000515,  0.999980625, -0.000000001, -0.000000350,  0.000000003, -0.000020711, -0.000021561,  0.000056901, -0.000000040, -0.000006381, -0.000000111
 7.267583300, -0.000000164, -0.000000056,  1.000007981, -0.000000001,  0.000000051,  0.000000003, -0.000020712, -0.000021562,  0.000056908, -0.000000040, -0.000006384, -0.000000111
 7.334166700, -0.000000195, -0.000000079,  1.000008886, -0.000000001,  0.000000073, -0.000000001, -0.000020718, -0.000021567,  0.000056912, -0.000000040, -0.000006385, -0.000000111
 7.400750000,  0.000000129,  0.000000140,  0.999999786,  0.000000000, -0.000000066,  0.000000004, -0.000020719, -0.000021567,  0.000056915, -0.000000040, -0.000006385, -0.000000111
 7.467333300,  0.000000100,  0.000000120,  1.000000121, -0.000000001, -0.000000061,  0.000000000, -0.000020721, -0.000021569,  0.000056923, -0.000000040, -0.000006387, -0.000000111
 7.533916700,  0.000000471,  0.000000353,  0.999988649,  0.000000000, -0.000000225,  0.000000003, -0.000020723, -0.000021570,  0.000056925, -0.000000040, -0.000006391, -0.000000111
 7.600500000,  0.000000900,  0.000000616,  0.999976092,  0.000000001, -0.000000410,  0.000000001, -0.000020726, -0.000021571,  0.000056929, -0.000000040, -0.000006394, -0.000000111
 7.667083300,  0.000000632,  0.000000455,  0.999983970, -0.000000001, -0.000000300,  0.000000003, -0.000020727, -0.000021576,  0.000056932, -0.000000040, -0.000006394, -0.000000111
 7.733666700,  0.000000219,  0.000000181,  0.999996428, -0.000000001, -0.000000117,  0.000000003, -0.000020731, -0.000021578,  0.000056938, -0.000000040, -0.000006395, -0.000000111
 7.800250000,  0.000000529,  0.000000374,  0.999987347,  0.000000000, -0.000000255,  0.000000003, -0.000020732, -0.000021578,  0.000056944, -0.000000040, -0.000006395, -0.000000111
 7.866833300,  0.000000449,  0.000000340,  0.999989869,  0.000000000, -0.000000207,  0.000000004, -0.000020736, -0.000021580,  0.000056947, -0.000000040, -0.000006398, -0.000000111
 7.933416700,  0.000000400,  0.000000300,  0.999990956,  0.000000000, -0.000000198,  0.000000003, -0.000020739, -0.000021581,  0.000056952, -0.000000040, -0.000006400, -0.000000111
 8.000000000,  0.000000649,  0.000000454,  0.999983679, -0.000000001, -0.000000300,  0.000000005, -0.000020741, -0.000021584,  0.000056956, -0.000000040, -0.000006404, -0.000000111
 8.000250000,  0.000001658,  0.000001543,  0.974980642,  0.000000006, -0.000000421, -0.000000018, -0.000020327, -0.000021110,  0.000055674, -0.000000040, -0.000006284, -0.000000109
 8.000500000, -0.000000939, -0.000001032,  0.949981686, -0.000000018, -0.000000360, -0.000000008, -0.000019889, -0.000020611,  0.000054354, -0.000000039, -0.000006152, -0.000000105
 8.000750000, -0.000000606, -0.000005305,  0.924992447, -0.000000026, -0.000001600,  0.000000015, -0.000019442, -0.000020106,  0.000053026, -0.000000037, -0.000006025, -0.000000104
 8.001000000, -0.000000705, -0.000004341,  0.899984031, -0.000000036, -0.000001190,  0.000000006, -0.000018994, -0.000019590,  0.000051691, -0.000000035, -0.000005894, -0.000000101
 8.001250000, -0.000000979, -0.000002309,  0.874983865, -0.000000035, -0.000000514,  0.000000005, -0.000018549, -0.000019075,  0.000050355, -0.000000035, -0.000005759, -0.000000100
 8.001500000, -0.000000092, -0.000000869,  0.849982625, -0.000000026, -0.000000400,  0.000000005, -0.000018100, -0.000018554,  0.000049018, -0.000000035, -0.000005627, -0.000000096
 8.001750000,  0.000001514,  0.000002825,  0.824935531, -0.000000009, -0.000000689,  0.000000000, -0.000017648, -0.000018033,  0.000047674, -0.000000034, -0.000005495, -0.000000095
 8.002000000,  0.000000840,  0.000001576,  0.799983750,  0.000000000, -0.000000182,  0.000000003, -0.000017199, -0.000017511,  0.000046338, -0.000000032, -0.000005360, -0.000000094
 8.002250000,  0.000001765,  0.000000852,  0.774991728,  0.000000011, -0.000000354,  0.000000005, -0.000016750, -0.000016990,  0.000044998, -0.000000032, -0.000005229, -0.000000087
 8.002500000,  0.000001870,  0.000001216,  0.749987283,  0.000000018, -0.000000380,  0.000000003, -0.000016304, -0.000016468,  0.000043658, -0.000000031, -0.000005095, -0.000000086
 8.002750000,  0.000001950,  0.000001580,  0.724978825,  0.000000019, -0.000000454,  0.000000003, -0.000015854, -0.000015944,  0.000042316, -0.000000030, -0.000004960, -0.000000084
 8.003000000,  0.000001621,  0.000001255,  0.699981949,  0.000000012, -0.000000416,  0.000000003, -0.000015406, -0.000015421,  0.000040976, -0.000000029, -0.000004826, -0.000000080
 8.003250000,  0.000000959,  0.000000774,  0.674990760,  0.000000009, -0.000000277,  0.000000001, -0.000014959, -0.000014900,  0.000039635, -0.000000027, -0.000004694, -0.000000080
 8.003500000,  0.000000779,  0.000000560,  0.649990299,  0.000000006, -0.000000289,  0.000000004, -0.000014511, -0.000014375,  0.000038294, -0.000000027, -0.000004560, -0.000000077
 8.003750000,  0.000000725,  0.000000485,  0.624987750,  0.000000001, -0.000000331,  0.000000004, -0.000014063, -0.000013854,  0.000036952, -0.000000027, -0.000004426, -0.000000075
 8.004000000,  0.000000230,  0.000000239,  0.599994634, -0.000000003, -0.000000207,  0.000000004, -0.000013614, -0.000013331,  0.000035611, -0.000000026, -0.000004292, -0.000000071
 8.004250000,  0.000000729,  0.000000499,  0.574983051, -0.000000006, -0.000000390,  0.000000006, -0.000013164, -0.000012809,  0.000034269, -0.000000025, -0.000004156, -0.000000069
 8.004500000,  0.000000594,  0.000000332,  0.549986901, -0.000000005, -0.000000364,  0.000000003, -0.000012716, -0.000012285,  0.000032930, -0.000000025, -0.000004024, -0.000000066
 8.004750000,  0.000000790,  0.000000466,  0.524983439, -0.000000005, -0.000000417,  0.000000000, -0.000012269, -0.000011761,  0.000031587, -0.000000022, -0.000003891, -0.000000063
 8.005000000,  0.000000456,  0.000000291,  0.499992220, -0.000000003, -0.000000288,  0.000000003, -0.000011820, -0.000011239,  0.000030245, -0.000000021, -0.000003757, -0.000000061
 8.005250000,  0.000000432,  0.000000270,  0.474994620, -0.000000001, -0.000000259,  0.000000005, -0.000011371, -0.000010714,  0.000028906, -0.000000021, -0.000003623, -0.000000060
 8.005500000,  0.000000691,  0.000000464,  0.449990442,  0.000000001, -0.000000332,  0.000000005, -0.000010921, -0.000010190,  0.000027564, -0.000000020, -0.000003490, -0.000000056
 8.005750000,  0.000000582,  0.000000396,  0.424994415,  0.000000003, -0.000000290,  0.000000004, -0.000010473, -0.000009666,  0.000026222, -0.000000019, -0.000003355, -0.000000055
 8.006000000,  0.000000759,  0.000000531,  0.399991394,  0.000000003, -0.000000332,  0.000000001, -0.000010024, -0.000009144,  0.000024882, -0.000000019, -0.000003223, -0.000000053
 8.006250000,  0.000000639,  0.000000450,  0.374994777,  0.000000003, -0.000000290,  0.000000004, -0.000009575, -0.000008620,  0.000023539, -0.000000019, -0.000003090, -0.000000050
 8.006500000,  0.000000472,  0.000000332,  0.349998824,  0.000000003, -0.000000235,  0.000000004, -0.000009128, -0.000008096,  0.000022198, -0.000000015, -0.000002954, -0.000000045
 8.006750000,  0.000000723,  0.000000510,  0.324993606,  0.000000001, -0.000000318,  0.000000003, -0.000008676, -0.000007572,  0.000020856, -0.000000014, -0.000002821, -0.000000045
 8.007000000,  0.000000615,  0.000000432,  0.299996133,  0.000000001, -0.000000288,  0.000000003, -0.000008229, -0.000007049,  0.000019514, -0.000000013, -0.000002685, -0.000000042
 8.007250000,  0.000000646,  0.000000440,  0.274995689,  0.000000000, -0.000000312,  0.000000003, -0.000007781, -0.000006526,  0.000018171, -0.000000011, -0.000002554, -0.000000039
 8.007500000,  0.000000615,  0.000000430,  0.249996585,  0.000000000, -0.000000293,  0.000000003, -0.000007332, -0.000006004,  0.000016830, -0.000000011, -0.000002419, -0.000000037
 8.007750000,  0.000000546,  0.000000388,  0.224999071,  0.000000000, -0.000000266,  0.000000004, -0.000006882, -0.000005479,  0.000015488, -0.000000010, -0.000002286, -0.000000034
 8.008000000,  0.000000534,  0.000000374,  0.199999542,  0.000000000, -0.000000266,  0.000000004, -0.000006434, -0.000004954,  0.000014147, -0.000000010, -0.000002153, -0.000000032
 8.008250000,  0.000000634,  0.000000445,  0.174997519,  0.000000000, -0.000000296,  0.000000004, -0.000005986, -0.000004430,  0.000012804, -0.000000009, -0.000002019, -0.000000029
 8.008500000,  0.000000601,  0.000000421,  0.149998629, -0.000000001, -0.000000285,  0.000000004, -0.000005537, -0.000003906,  0.000011463, -0.000000009, -0.000001884, -0.000000026
 8.008750000,  0.000000645,  0.000000453,  0.124997992, -0.000000001, -0.000000300,  0.000000005, -0.000005087, -0.000003383,  0.000010121, -0.000000007, -0.000001750, -0.000000021
 8.009000000,  0.000000642,  0.000000453,  0.099998460, -0.000000001, -0.000000300,  0.000000005, -0.000004639, -0.000002860,  0.000008779, -0.000000004, -0.000001616, -0.000000020
 8.009250000,  0.000000650,  0.000000458,  0.074998750, -0.000000001, -0.000000301,  0.000000005, -0.000004190, -0.000002335,  0.000007434, -0.000000004, -0.000001482, -0.000000019
 8.009500000,  0.000000650,  0.000000458,  0.049999126, -0.000000001, -0.000000301,  0.000000005, -0.000003741, -0.000001810,  0.000006095, -0.000000004, -0.000001346, -0.000000015
 8.009750000,  0.000000642,  0.000000449,  0.024999741, -0.000000001, -0.000000299,  0.000000005, -0.000003294, -0.000001286,  0.000004751, -0.000000003, -0.000001215, -0.000000012
 8.010000000,  0.000000646,  0.000000454,  0.000000014, -0.000000001, -0.000000300,  0.000000005, -0.000002841, -0.000000763,  0.000003407, -0.000000001, -0.000001080, -0.000000010
 8.143166700,  0.000000649,  0.000000454, -0.000000006, -0.000000001, -0.000000300,  0.000000005, -0.000002123, -0.000000510,  0.000002544, -0.000000001, -0.000000866, -0.000000010
 8.276333300,  0.000000647,  0.000000454,  0.000000000, -0.000000001, -0.000000300,  0.000000005, -0.000001630, -0.000000464,  0.000002034, -0.000000001, -0.000000736, -0.000000009
 8.409500000,  0.000000646,  0.000000454,  0.000000022, -0.000000001, -0.000000300,  0.000000005, -0.000001260, -0.000000431,  0.000001658, -0.000000001, -0.000000639, -0.000000005
 8.542666700,  0.000000646,  0.000000454,  0.000000028, -0.000000001, -0.000000299,  0.000000005, -0.000000991, -0.000000407,  0.000001380, -0.000000001, -0.000000559, -0.000000004
 8.675833300,  0.000000646,  0.000000454,  0.000000006, -0.000000001, -0.000000300,  0.000000005, -0.000000792, -0.000000389,  0.000001175,  0.000000000, -0.000000501, -0.000000005
 8.809000000,  0.000000646,  0.000000454,  0.000000020, -0.000000001, -0.000000300,  0.000000005, -0.000000649, -0.000000374,  0.000001023,  0.000000000, -0.000000457, -0.000000004
 8.942166700,  0.000000646,  0.000000454,  0.000000019, -0.000000001, -0.000000300,  0.000000005, -0.000000541, -0.000000360,  0.000000910,  0.000000000, -0.000000421, -0.000000004
 9.075333300,  0.000000646,  0.000000454,  0.000000016, -0.000000001, -0.000000300,  0.000000005, -0.000000465, -0.000000350,  0.000000828,  0.000000000, -0.000000394, -0.000000004
 9.208500000,  0.000000646,  0.000000454,  0.000000016, -0.000000001, -0.000000300,  0.000000005, -0.000000407, -0.000000340,  0.000000763,  0.000000000, -0.000000371, -0.000000005
 9.341666700,  0.000000647,  0.000000454,  0.000000006, -0.000000001, -0.000000299,  0.000000005, -0.000000368, -0.000000331,  0.000000719,  0.000000000, -0.000000351, -0.000000005
 9.474833300,  0.000000647,  0.000000454,  0.000000011, -0.000000001, -0.000000300,  0.000000005, -0.000000337, -0.000000324,  0.000000683,  0.000000000, -0.000000338, -0.000000004
 9.608000000,  0.000000647,  0.000000454,  0.000000014, -0.000000001, -0.000000300,  0.000000005, -0.000000316, -0.000000317,  0.000000656,  0.000000000, -0.000000326, -0.000000004
 9.741166700,  0.000000647,  0.000000454,  0.000000004, -0.000000001, -0.000000300,  0.000000005, -0.000000303, -0.000000310,  0.000000636,  0.000000000, -0.000000313, -0.000000005
 9.874333300,  0.000000649,  0.000000454,  0.000000008, -0.000000001, -0.000000299,  0.000000005, -0.000000291, -0.000000304,  0.000000619,  0.000000000, -0.000000303, -0.000000004
10.007500000,  0.000000647,  0.000000455, -0.000000000, -0.000000001, -0.000000300,  0.000000005, -0.000000286, -0.000000299,  0.000000609,  0.000000000, -0.000000296, -0.000000004
10.140667000,  0.000000646,  0.000000455,  0.000000019, -0.000000001, -0.000000300,  0.000000005, -0.000000281, -0.000000291,  0.000000599,  0.000000000, -0.000000288, -0.000000004
10.273833000,  0.000000647,  0.000000455,  0.000000008, -0.000000001, -0.000000300,  0.000000005, -0.000000280, -0.000000288,  0.000000590,  0.000000000, -0.000000280, -0.000000004
10.407000000,  0.000000646,  0.000000454,  0.000000019, -0.000000001, -0.000000299,  0.000000005, -0.000000277, -0.000000280,  0.000000585,  0.000000000, -0.000000271, -0.000000004
10.540167000,  0.000000646,  0.000000454,  0.000000011, -0.000000001, -0.000000300,  0.000000005, -0.000000277, -0.000000277,  0.000000580,  0.000000000, -0.000000268, -0.000000004
10.673333000,  0.000000647,  0.000000454,  0.000000015, -0.000000001, -0.000000299,  0.000000005, -0.000000277, -0.000000270,  0.000000575,  0.000000000, -0.000000261, -0.000000004
10.806500000,  0.000000646,  0.000000454,  0.000000017, -0.000000001, -0.000000299,  0.000000005, -0.000000277, -0.000000267,  0.000000570,  0.000000000, -0.000000257, -0.000000004
10.939667000,  0.000000647,  0.000000454,  0.000000009, -0.000000001, -0.000000300,  0.000000005, -0.000000280, -0.000000263,  0.000000568,  0.000000000, -0.000000251, -0.000000004
11.072833000,  0.000000647,  0.000000454,  0.000000013, -0.000000001, -0.000000299,  0.000000005, -0.000000280, -0.000000260,  0.000000564,  0.000000000, -0.000000248, -0.000000004
11.206000000,  0.000000649,  0.000000454,  0.000000006, -0.000000001, -0.000000300,  0.000000005, -0.000000281, -0.000000255,  0.000000560,  0.000000000, -0.000000241, -0.000000004
11.339167000,  0.000000647,  0.000000454,  0.000000014, -0.000000001, -0.000000300,  0.000000005, -0.000000283, -0.000000250,  0.000000559,  0.000000000, -0.000000239, -0.000000003
11.472333000,  0.000000647,  0.000000454,  0.000000015, -0.000000001, -0.000000300,  0.000000005, -0.000000284, -0.000000247,  0.000000554,  0.000000000, -0.000000231, -0.000000001
11.605500000,  0.000000646,  0.000000454,  0.000000016, -0.000000001, -0.000000300,  0.000000005, -0.000000288, -0.000000241,  0.000000551,  0.000000000, -0.000000230, -0.000000001
11.738667000,  0.000000646,  0.000000454,  0.000000015, -0.000000001, -0.000000300,  0.000000005, -0.000000288, -0.000000239,  0.000000550,  0.000000000, -0.000000225, -0.000000001
11.871833000,  0.000000647,  0.000000454,  0.000000011, -0.000000001, -0.000000300,  0.000000005, -0.000000290, -0.000000235,  0.000000549,  0.000000000, -0.000000220, -0.000000001
12.005000000,  0.000000646,  0.000000454,  0.000000014, -0.000000001, -0.000000300,  0.000000005, -0.000000290, -0.000000230,  0.000000544,  0.000000000, -0.000000220, -0.000000001
12.138167000,  0.000000646,  0.000000454,  0.000000015, -0.000000001, -0.000000300,  0.000000005, -0.000000291, -0.000000229,  0.000000544,  0.000000000, -0.000000212, -0.000000001
12.271333000,  0.000000646,  0.000000454,  0.000000010, -0.000000001, -0.000000300,  0.000000005, -0.000000293, -0.000000225,  0.000000540,  0.000000000, -0.000000210, -0.000000001
12.404500000,  0.000000646,  0.000000454,  0.000000014, -0.000000001, -0.000000300,  0.000000005, -0.000000293, -0.000000221,  0.000000539,  0.000000000, -0.000000210, -0.000000001
12.537667000,  0.000000646,  0.000000454,  0.000000012, -0.000000001, -0.000000300,  0.000000005, -0.000000295, -0.000000219,  0.000000539,  0.000000000, -0.000000202, -0.000000001
12.670833000,  0.000000646,  0.000000454,  0.000000014, -0.000000001, -0.000000300,  0.000000005, -0.000000298, -0.000000216,  0.000000534,  0.000000000, -0.000000200, -0.000000001
12.804000000,  0.000000646,  0.000000454,  0.000000016, -0.000000001, -0.000000300,  0.000000005, -0.000000298, -0.000000213,  0.000000531,  0.000000000, -0.000000200, -0.000000001
12.937167000,  0.000000646,  0.000000454,  0.000000014, -0.000000001, -0.000000300,  0.000000005, -0.000000298, -0.000000209,  0.000000530,  0.000000000, -0.000000196, -0.000000001
13.070333000,  0.000000646,  0.000000454,  0.000000014, -0.000000001, -0.000000300,  0.000000005, -0.000000300, -0.000000209,  0.000000529,  0.000000000, -0.000000190, -0.000000001
13.203500000,  0.000000646,  0.000000454,  0.000000014, -0.000000001, -0.000000300,  0.000000005, -0.000000300, -0.000000205,  0.000000528,  0.000000000, -0.000000190, -0.000000001
13.336667000,  0.000000646,  0.000000454,  0.000000014, -0.000000001, -0.000000300,  0.000000005, -0.000000300, -0.000000201,  0.000000524,  0.000000000, -0.000000188, -0.000000001
13.469833000,  0.000000646,  0.000000454,  0.000000014, -0.000000001, -0.000000300,  0.000000005, -0.000000300, -0.000000199,  0.000000521,  0.000000000, -0.000000184, -0.000000001
13.603000000,  0.000000646,  0.000000454,  0.000000012, -0.000000001, -0.000000300,  0.000000005, -0.000000301, -0.000000199,  0.000000521,  0.000000000, -0.000000180, -0.000000001
13.736167000,  0.000000646,  0.000000454,  0.000000010, -0.000000001, -0.000000300,  0.000000005, -0.000000303, -0.000000195,  0.000000519,  0.000000000, -0.000000180, -0.000000001
13.869333000,  0.000000646,  0.000000454,  0.000000015, -0.000000001, -0.000000300,  0.000000005, -0.000000303, -0.000000191,  0.000000518,  0.000000000, -0.000000179, -0.000000001
14.002500000,  0.000000646,  0.000000454,  0.000000012, -0.000000001, -0.000000300,  0.000000005, -0.000000303, -0.000000189,  0.000000516,  0.000000000, -0.000000176,  0.000000000
14.135667000,  0.000000646,  0.000000454,  0.000000015, -0.000000001, -0.000000300,  0.000000005, -0.000000303, -0.000000189,  0.000000513,  0.000000000, -0.000000170,  0.000000000
14.268833000,  0.000000646,  0.000000454,  0.000000014, -0.000000001, -0.000000300,  0.000000005, -0.000000305, -0.000000186,  0.000000511,  0.000000000, -0.000000170,  0.000000000
14.402000000,  0.000000646,  0.000000454,  0.000000010, -0.000000001, -0.000000300,  0.000000005, -0.000000305, -0.000000182,  0.000000509,  0.000000000, -0.000000169,  0.000000000
14.535167000,  0.000000646,  0.000000454,  0.000000012, -0.000000001, -0.000000300,  0.000000005, -0.000000306, -0.000000181,  0.000000509,  0.000000000, -0.000000168,  0.000000000
14.668333000,  0.000000646,  0.000000454,  0.000000014, -0.000000001, -0.000000300,  0.000000005, -0.000000306, -0.000000179,  0.000000506,  0.000000000, -0.000000165,  0.000000000
14.801500000,  0.000000646,  0.000000454,  0.000000013, -0.000000001, -0.000000300,  0.000000005, -0.000000307, -0.000000179,  0.000000505,  0.000000000, -0.000000160,  0.000000000
14.934667000,  0.000000646,  0.000000454,  0.000000015, -0.000000001, -0.000000300,  0.000000005, -0.000000307, -0.000000176,  0.000000501,  0.000000000, -0.000000160,  0.000000000
15.067833000,  0.000000646,  0.000000454,  0.000000014, -0.000000001, -0.000000300,  0.000000005, -0.000000307, -0.000000174,  0.000000500,  0.000000000, -0.000000159,  0.000000000
15.201000000,  0.000000646,  0.000000454,  0.000000015, -0.000000001, -0.000000300,  0.000000005, -0.000000307, -0.000000171,  0.000000499,  0.000000000, -0.000000159,  0.000000000
15.334167000,  0.000000646,  0.000000454,  0.000000011, -0.000000001, -0.000000300,  0.000000005, -0.000000307, -0.000000170,  0.000000498,  0.000000000, -0.000000158,  0.000000000
15.467333000,  0.000000646,  0.000000454,  0.000000012, -0.000000001, -0.000000300,  0.000000005, -0.000000307, -0.000000169,  0.000000496,  0.000000000, -0.000000154,  0.000000000
15.600500000,  0.000000646,  0.000000454,  0.000000016, -0.000000001, -0.000000300,  0.000000005, -0.000000307, -0.000000169,  0.000000494,  0.000000000, -0.000000151,  0.000000000
15.733667000,  0.000000646,  0.000000454,  0.000000014, -0.000000001, -0.000000300,  0.000000005, -0.000000307, -0.000000165,  0.000000491,  0.000000000, -0.000000150,  0.000000000
15.866833000,  0.000000646,  0.000000454,  0.000000015, -0.000000001, -0.000000300,  0.000000005, -0.000000307, -0.000000163,  0.000000490,  0.000000000, -0.000000150,  0.000000000
16.000000000,  0.000000646,  0.000000454,  0.000000012, -0.000000001, -0.000000300,  0.000000005, -0.000000307, -0.000000161,  0.000000489,  0.000000000, -0.000000149,  0.000000000
