Time (m)    , Stress_xx (MPa), Stress_yy (MPa), Stress_zz (MPa), Stress_xy (MPa), Stress_xz (MPa), Stress_yz (MPa), Strain_xx   , Strain_yy   , Strain_zz   , Strain_xy   , Strain_xz   , Strain_yz   
 0.000000000,  0.000000000,  0.000000000,  0.000000000,  0.000000000,  0.000000000,  0.000000000,  0.000000000,  0.000000000,  0.000000000,  0.000000000,  0.000000000,  0.000000000
 0.000500000,  0.049999993, -0.000000114,  0.000000501,  0.000000000,  0.000000006,  0.000000000,  0.000006499, -0.000001721, -0.000000516,  0.000000094,  0.000000034, -0.000000001
 0.001000000,  0.099999756,  0.000000057,  0.000000191, -0.000000001,  0.000000004,  0.000000000,  0.000013953, -0.000003974, -0.000001114,  0.000000201,  0.000000077, -0.000000001
 0.001500000,  0.149999587,  0.000000193, -0.000001073, -0.000000003, -0.000000013,  0.000000000,  0.000021823, -0.000006451, -0.000001744,  0.000000316,  0.000000126,  0.000000001
 0.002000000,  0.199998970,  0.000000070,  0.000001753, -0.000000009,  0.000000024,  0.000000000,  0.000029991, -0.000009094, -0.000002397,  0.000000436,  0.000000176,  0.000000000
 0.002500000,  0.249998667, -0.000000126, -0.000000937, -0.000000021, -0.000000003,  0.000000001,  0.000038400, -0.000011863, -0.000003070,  0.000000560,  0.000000226,  0.000000000
 0.003000000,  0.299998600, -0.000000989, -0.000002926, -0.000000040, -0.000000007,  0.000000000,  0.000047001, -0.000014736, -0.000003759,  0.000000684,  0.000000277,  0.000000001
 0.003500000,  0.349998714, -0.000000949, -0.000011061, -0.000000043, -0.000000133,  0.000000006,  0.000055770, -0.000017697, -0.000004457,  0.000000814,  0.000000331,  0.000000000
 0.004000000,  0.399997571, -0.000002774, -0.000003019, -0.000000077,  0.000000026, -0.000000003,  0.000064689, -0.000020740, -0.000005167,  0.000000943,  0.000000387, -0.000000000
 0.004500000,  0.449995779, -0.000001593, -0.000004151, -0.000000087, -0.000000064,  0.000000003,  0.000073741, -0.000023851, -0.000005889,  0.000001079,  0.000000443,  0.000000000
 0.005000000,  0.499991696,  0.000000550, -0.000000829, -0.000000060, -0.000000014, -0.000000001,  0.000082917, -0.000027027, -0.000006620,  0.000001213,  0.000000500, -0.000000001
 0.005500000,  0.549994863, -0.000001443, -0.000000096, -0.000000099, -0.000000019,  0.000000003,  0.000092210, -0.000030267, -0.000007361,  0.000001351,  0.000000557, -0.000000001
 0.006000000,  0.599994229,  0.000001069, -0.000010053, -0.000000040, -0.000000131, -0.000000004,  0.000101609, -0.000033561, -0.000008107,  0.000001491,  0.000000613, -0.000000000
 0.006500000,  0.649993536, -0.000005483, -0.000009557, -0.000000103, -0.000000080, -0.000000003,  0.000111107, -0.000036911, -0.000008866,  0.000001633,  0.000000676, -0.000000001
 0.007000000,  0.699995893, -0.000002856, -0.000012369, -0.000000066, -0.000000131,  0.000000000,  0.000120699, -0.000040309, -0.000009627,  0.000001773,  0.000000733, -0.000000003
 0.007500000,  0.749994981, -0.000003404,  0.000000316, -0.000000090,  0.000000016,  0.000000006,  0.000130381, -0.000043754, -0.000010399,  0.000001916,  0.000000794, -0.000000000
 0.008000000,  0.799995447, -0.000004913, -0.000006616, -0.000000134, -0.000000053,  0.000000001,  0.000140149, -0.000047249, -0.000011174,  0.000002063,  0.000000853, -0.000000003
 0.008500000,  0.849994041, -0.000006454, -0.000007924, -0.000000147, -0.000000041,  0.000000006,  0.000149993, -0.000050780, -0.000011956,  0.000002210,  0.000000913, -0.000000003
 0.009000000,  0.899993334, -0.000008094, -0.000012874, -0.000000141, -0.000000070,  0.000000003,  0.000159911, -0.000054353, -0.000012744,  0.000002360,  0.000000976, -0.000000004
 0.009500000,  0.949994167, -0.000006237, -0.000005483, -0.000000077, -0.000000003,  0.000000000,  0.000169900, -0.000057970, -0.000013537,  0.000002507,  0.000001037, -0.000000004
 0.010000000,  0.999994936, -0.000006771, -0.000008153, -0.000000194, -0.000000047,  0.000000000,  0.000179959, -0.000061619, -0.000014333,  0.000002657,  0.000001101, -0.000000004
 0.076583330,  0.999995553, -0.000006724,  0.000011689, -0.000000179,  0.000000224,  0.000000006,  0.000230399, -0.000092340, -0.000017581,  0.000003513,  0.000001441, -0.000000013
 0.143166670,  0.999995773, -0.000006481, -0.000010484, -0.000000186, -0.000000081,  0.000000000,  0.000237274, -0.000098076, -0.000017799,  0.000003607,  0.000001484, -0.000000014
 0.209750000,  0.999996691, -0.000005970, -0.000004306, -0.000000153, -0.000000006, -0.000000003,  0.000240207, -0.000100729, -0.000017859,  0.000003643,  0.000001500, -0.000000016
 0.276333330,  0.999997306, -0.000005397, -0.000003690, -0.000000146, -0.000000014,  0.000000009,  0.000241609, -0.000102043, -0.000017876,  0.000003661,  0.000001507, -0.000000016
 0.342916670,  0.999998683, -0.000004226,  0.000001441, -0.000000097,  0.000000047,  0.000000001,  0.000242307, -0.000102714, -0.000017881,  0.000003669,  0.000001511, -0.000000016
 0.409500000,  0.999999656, -0.000004221, -0.000019227, -0.000000106, -0.000000331,  0.000000009,  0.000242670, -0.000103071, -0.000017887,  0.000003673,  0.000001511, -0.000000016
 0.476083330,  1.000000891, -0.000004513, -0.000015176, -0.000000084, -0.000000234,  0.000000000,  0.000242867, -0.000103269, -0.000017887,  0.000003674,  0.000001511, -0.000000016
 0.542666670,  1.000001639, -0.000004081, -0.000020959, -0.000000051, -0.000000327,  0.000000004,  0.000242990, -0.000103390, -0.000017887,  0.000003677,  0.000001513, -0.000000016
 0.609250000,  1.000001147, -0.000009051, -0.000012600, -0.000000124, -0.000000139,  0.000000009,  0.000243064, -0.000103470, -0.000017889,  0.000003677,  0.000001513, -0.000000016
 0.675833330,  1.000000067, -0.000011477, -0.000015621, -0.000000166, -0.000000144,  0.000000003,  0.000243121, -0.000103529, -0.000017889,  0.000003677,  0.000001514, -0.000000016
 0.742416670,  0.999999850, -0.000012861, -0.000010786, -0.000000189, -0.000000077,  0.000000001,  0.000243167, -0.000103577, -0.000017890,  0.000003680,  0.000001514, -0.000000016
 0.809000000,  1.000000124, -0.000014129, -0.000010044, -0.000000189, -0.000000051, -0.000000001,  0.000243213, -0.000103621, -0.000017891,  0.000003680,  0.000001516, -0.000000016
 0.875583330,  0.999996090, -0.000009759,  0.000000280, -0.000000201,  0.000000079, -0.000000006,  0.000243253, -0.000103660, -0.000017891,  0.000003680,  0.000001516, -0.000000016
 0.942166670,  0.999994640, -0.000007684, -0.000003674, -0.000000211,  0.000000003, -0.000000001,  0.000243291, -0.000103697, -0.000017897,  0.000003680,  0.000001516, -0.000000016
 1.008750000,  0.999996816, -0.000009891, -0.000003466, -0.000000201,  0.000000000, -0.000000007,  0.000243330, -0.000103733, -0.000017897,  0.000003680,  0.000001516, -0.000000016
 1.075333300,  0.999996644, -0.000008869, -0.000009681, -0.000000190, -0.000000086,  0.000000000,  0.000243369, -0.000103767, -0.000017897,  0.000003680,  0.000001516, -0.000000016
 1.141916700,  0.999996473, -0.000008314, -0.000011907, -0.000000184, -0.000000110,  0.000000006,  0.000243403, -0.000103800, -0.000017899,  0.000003680,  0.000001516, -0.000000016
 1.208500000,  0.999996319, -0.000008303, -0.000006819, -0.000000180, -0.000000033,  0.000000004,  0.000243440, -0.000103833, -0.000017900,  0.000003681,  0.000001516, -0.000000016
 1.275083300,  0.999995139, -0.000007500,  0.000009144, -0.000000187,  0.000000203, -0.000000003,  0.000243477, -0.000103864, -0.000017904,  0.000003681,  0.000001516, -0.000000016
 1.341666700,  0.999996254, -0.000007409, -0.000024280, -0.000000193, -0.000000287,  0.000000006,  0.000243510, -0.000103894, -0.000017907,  0.000003681,  0.000001516, -0.000000016
 1.408250000,  0.999995891, -0.000007763, -0.000011007, -0.000000193, -0.000000103, -0.000000004,  0.000243544, -0.000103924, -0.000017907,  0.000003681,  0.000001517, -0.000000016
 1.474833300,  0.999995879, -0.000007690, -0.000010021, -0.000000191, -0.000000079, -0.000000004,  0.000243576, -0.000103953, -0.000017910,  0.000003683,  0.000001519, -0.000000016
 1.541416700,  0.999995537, -0.000007756, -0.000003360, -0.000000193,  0.000000017, -0.000000001,  0.000243611, -0.000103983, -0.000017913,  0.000003683,  0.000001519, -0.000000016
 1.608000000,  0.999995579, -0.000007706, -0.000006029, -0.000000194, -0.000000020, -0.000000001,  0.000243646, -0.000104011, -0.000017917,  0.000003681,  0.000001519, -0.000000016
 1.674583300,  0.999995771, -0.000006917, -0.000022413, -0.000000194, -0.000000260, -0.000000001,  0.000243676, -0.000104037, -0.000017917,  0.000003683,  0.000001519, -0.000000016
 1.741166700,  0.999995927, -0.000006581, -0.000031757, -0.000000191, -0.000000384,  0.000000001,  0.000243707, -0.000104064, -0.000017919,  0.000003683,  0.000001519, -0.000000016
 1.807750000,  0.999995719, -0.000007791, -0.000006781, -0.000000194, -0.000000023,  0.000000003,  0.000243739, -0.000104091, -0.000017921,  0.000003683,  0.000001520, -0.000000016
 1.874333300,  0.999995877, -0.000007826, -0.000009661, -0.000000194, -0.000000067, -0.000000003,  0.000243770, -0.000104117, -0.000017926,  0.000003683,  0.000001520, -0.000000016
 1.940916700,  0.999995831, -0.000007719, -0.000010533, -0.000000194, -0.000000081, -0.000000001,  0.000243800, -0.000104143, -0.000017927,  0.000003683,  0.000001520, -0.000000016
 2.007500000,  0.999994864, -0.000007317,  0.000007184, -0.000000194,  0.000000166,  0.000000001,  0.000243830, -0.000104170, -0.000017926,  0.000003683,  0.000001521, -0.000000016
 2.074083300,  0.999995566, -0.000007627, -0.000005364, -0.000000191, -0.000000007,  0.000000003,  0.000243861, -0.000104194, -0.000017930,  0.000003684,  0.000001521, -0.000000016
 2.140666700,  0.999995600, -0.000007533, -0.000007774, -0.000000191, -0.000000046,  0.000000003,  0.000243891, -0.000104219, -0.000017936,  0.000003684,  0.000001521, -0.000000016
 2.207250000,  0.999995900, -0.000007539, -0.000014454, -0.000000191, -0.000000140,  0.000000001,  0.000243920, -0.000104240, -0.000017937,  0.000003684,  0.000001521, -0.000000016
 2.273833300,  0.999995674, -0.000007799, -0.000005241, -0.000000191, -0.000000004, -0.000000004,  0.000243950, -0.000104269, -0.000017937,  0.000003686,  0.000001521, -0.000000016
 2.340416700,  0.999995543, -0.000007160, -0.000013029, -0.000000191, -0.000000113, -0.000000001,  0.000243977, -0.000104290, -0.000017941,  0.000003687,  0.000001521, -0.000000014
 2.407000000,  0.999994706, -0.000006881,  0.000000601, -0.000000193,  0.000000079,  0.000000004,  0.000244007, -0.000104313, -0.000017943,  0.000003690,  0.000001523, -0.000000014
 2.473583300,  0.999994960, -0.000006817, -0.000006489, -0.000000191, -0.000000016,  0.000000001,  0.000244034, -0.000104337, -0.000017947,  0.000003690,  0.000001523, -0.000000014
 2.540166700,  0.999995216, -0.000006900, -0.000010659, -0.000000193, -0.000000083,  0.000000007,  0.000244063, -0.000104360, -0.000017947,  0.000003690,  0.000001523, -0.000000014
 2.606750000,  0.999995366, -0.000007317, -0.000006987, -0.000000190, -0.000000031,  0.000000003,  0.000244091, -0.000104381, -0.000017950,  0.000003690,  0.000001523, -0.000000014
 2.673333300,  0.999995276, -0.000006906, -0.000012244, -0.000000189, -0.000000106,  0.000000004,  0.000244121, -0.000104403, -0.000017956,  0.000003690,  0.000001524, -0.000000014
 2.739916700,  0.999995743, -0.000007497, -0.000011786, -0.000000191, -0.000000097,  0.000000001,  0.000244146, -0.000104427, -0.000017957,  0.000003690,  0.000001526, -0.000000014
 2.806500000,  0.999995884, -0.000007353, -0.000017480, -0.000000193, -0.000000176, -0.000000004,  0.000244171, -0.000104447, -0.000017957,  0.000003690,  0.000001526, -0.000000014
 2.873083300,  0.999995113, -0.000007241, -0.000002993, -0.000000193,  0.000000026,  0.000000003,  0.000244201, -0.000104469, -0.000017960,  0.000003691,  0.000001526, -0.000000014
 2.939666700,  0.999994850, -0.000007244,  0.000003299, -0.000000194,  0.000000119, -0.000000003,  0.000244229, -0.000104490, -0.000017964,  0.000003691,  0.000001527, -0.000000014
 3.006250000,  0.999994749, -0.000007024,  0.000001357, -0.000000194,  0.000000084, -0.000000001,  0.000244253, -0.000104513, -0.000017967,  0.000003691,  0.000001527, -0.000000014
 3.072833300,  0.999995646, -0.000006611, -0.000026023, -0.000000193, -0.000000300,  0.000000003,  0.000244280, -0.000104533, -0.000017969,  0.000003691,  0.000001527, -0.000000014
 3.139416700,  0.999994836, -0.000006759, -0.000005137, -0.000000194, -0.000000009, -0.000000001,  0.000244307, -0.000104553, -0.000017969,  0.000003691,  0.000001527, -0.000000014
 3.206000000,  0.999995017, -0.000007201, -0.000000510, -0.000000193,  0.000000063, -0.000000003,  0.000244330, -0.000104576, -0.000017974,  0.000003691,  0.000001527, -0.000000014
 3.272583300,  0.999995210, -0.000006846, -0.000011493, -0.000000194, -0.000000093,  0.000000003,  0.000244359, -0.000104596, -0.000017977,  0.000003691,  0.000001527, -0.000000014
 3.339166700,  0.999993811, -0.000007061,  0.000023920, -0.000000196,  0.000000411,  0.000000001,  0.000244381, -0.000104614, -0.000017977,  0.000003693,  0.000001527, -0.000000014
 3.405750000,  0.999995109, -0.000007127, -0.000004866, -0.000000196,  0.000000004, -0.000000001,  0.000244407, -0.000104633, -0.000017979,  0.000003693,  0.000001527, -0.000000014
 3.472333300,  0.999995617, -0.000007206, -0.000015393, -0.000000194, -0.000000150,  0.000000000,  0.000244434, -0.000104653, -0.000017986,  0.000003693,  0.000001529, -0.000000014
 3.538916700,  0.999995786, -0.000007383, -0.000015540, -0.000000196, -0.000000154,  0.000000003,  0.000244457, -0.000104673, -0.000017987,  0.000003693,  0.000001529, -0.000000014
 3.605500000,  0.999995340, -0.000007363, -0.000005300, -0.000000194, -0.000000007,  0.000000001,  0.000244483, -0.000104691, -0.000017987,  0.000003693,  0.000001529, -0.000000014
 3.672083300,  0.999994729, -0.000006907,  0.000000573, -0.000000194,  0.000000077,  0.000000000,  0.000244506, -0.000104710, -0.000017989,  0.000003693,  0.000001529, -0.000000014
 3.738666700,  0.999995124, -0.000007044, -0.000006450, -0.000000194, -0.000000021, -0.000000001,  0.000244531, -0.000104727, -0.000017994,  0.000003693,  0.000001530, -0.000000014
 3.805250000,  0.999995501, -0.000007151, -0.000013476, -0.000000193, -0.000000123,  0.000000001,  0.000244554, -0.000104747, -0.000017997,  0.000003696,  0.000001530, -0.000000014
 3.871833300,  0.999995280, -0.000006826, -0.000014070, -0.000000194, -0.000000134,  0.000000001,  0.000244579, -0.000104764, -0.000017997,  0.000003697,  0.000001530, -0.000000014
 3.938416700,  0.999995037, -0.000006851, -0.000008217, -0.000000194, -0.000000049,  0.000000000,  0.000244603, -0.000104784, -0.000018000,  0.000003697,  0.000001531, -0.000000014
 4.005000000,  0.999995027, -0.000006994, -0.000005489, -0.000000193, -0.000000009,  0.000000003,  0.000244626, -0.000104803, -0.000018004,  0.000003697,  0.000001531, -0.000000014
 4.071583300,  0.999995530, -0.000006519, -0.000025067, -0.000000194, -0.000000289,  0.000000000,  0.000244649, -0.000104819, -0.000018009,  0.000003697,  0.000001531, -0.000000014
 4.138166700,  0.999995329, -0.000006423, -0.000022760, -0.000000193, -0.000000257, -0.000000003,  0.000244671, -0.000104834, -0.000018009,  0.000003697,  0.000001531, -0.000000014
 4.204750000,  0.999994979, -0.000006921, -0.000005781, -0.000000194, -0.000000017,  0.000000007,  0.000244694, -0.000104854, -0.000018011,  0.000003697,  0.000001533, -0.000000016
 4.271333300,  0.999994946, -0.000006623, -0.000010529, -0.000000193, -0.000000083,  0.000000007,  0.000244717, -0.000104873, -0.000018014,  0.000003697,  0.000001533, -0.000000016
 4.337916700,  0.999994924, -0.000007014, -0.000003070, -0.000000193,  0.000000023,  0.000000000,  0.000244740, -0.000104889, -0.000018017,  0.000003700,  0.000001534, -0.000000016
 4.404500000,  0.999994761, -0.000007470,  0.000009049, -0.000000191,  0.000000200,  0.000000001,  0.000244761, -0.000104904, -0.000018017,  0.000003700,  0.000001534, -0.000000016
 4.471083300,  0.999995299, -0.000006676, -0.000016821, -0.000000191, -0.000000167,  0.000000000,  0.000244784, -0.000104923, -0.000018023,  0.000003700,  0.000001534, -0.000000016
 4.537666700,  0.999995269, -0.000006973, -0.000010927, -0.000000193, -0.000000084, -0.000000001,  0.000244806, -0.000104939, -0.000018024,  0.000003700,  0.000001534, -0.000000016
 4.604250000,  0.999995363, -0.000007053, -0.000011590, -0.000000191, -0.000000089, -0.000000003,  0.000244827, -0.000104954, -0.000018027,  0.000003700,  0.000001534, -0.000000016
 4.670833300,  0.999995287, -0.000007077, -0.000009486, -0.000000191, -0.000000061, -0.000000001,  0.000244850, -0.000104973, -0.000018029,  0.000003700,  0.000001534, -0.000000016
 4.737416700,  0.999995630, -0.000007056, -0.000017551, -0.000000191, -0.000000180, -0.000000004,  0.000244873, -0.000104987, -0.000018031,  0.000003700,  0.000001536, -0.000000016
 4.804000000,  0.999995443, -0.000006810, -0.000017630, -0.000000191, -0.000000181,  0.000000000,  0.000244894, -0.000105004, -0.000018037,  0.000003700,  0.000001537, -0.000000016
 4.870583300,  0.999995376, -0.000007103, -0.000010686, -0.000000190, -0.000000084, -0.000000001,  0.000244914, -0.000105020, -0.000018037,  0.000003700,  0.000001537, -0.000000016
 4.937166700,  0.999995467, -0.000006941, -0.000015384, -0.000000190, -0.000000153, -0.000000001,  0.000244934, -0.000105034, -0.000018039,  0.000003700,  0.000001537, -0.000000016
 5.003750000,  0.999995444, -0.000006753, -0.000019020, -0.000000191, -0.000000204,  0.000000003,  0.000244956, -0.000105051, -0.000018044,  0.000003700,  0.000001537, -0.000000016
 5.070333300,  0.999995169, -0.000006990, -0.000008089, -0.000000191, -0.000000050,  0.000000001,  0.000244977, -0.000105064, -0.000018047,  0.000003700,  0.000001537, -0.000000016
 5.136916700,  0.999995107, -0.000007279, -0.000001169, -0.000000190,  0.000000051, -0.000000001,  0.000244997, -0.000105083, -0.000018047,  0.000003701,  0.000001537, -0.000000016
 5.203500000,  0.999995793, -0.000006877, -0.000024407, -0.000000190, -0.000000277, -0.000000003,  0.000245019, -0.000105094, -0.000018050,  0.000003703,  0.000001539, -0.000000016
 5.270083300,  0.999995081, -0.000006973, -0.000006837, -0.000000193, -0.000000031, -0.000000003,  0.000245039, -0.000105111, -0.000018054,  0.000003703,  0.000001539, -0.000000016
 5.336666700,  0.999994417, -0.000007027,  0.000009721, -0.000000194,  0.000000203, -0.000000003,  0.000245059, -0.000105124, -0.000018056,  0.000003703,  0.000001539, -0.000000016
 5.403250000,  0.999994147, -0.000007013,  0.000015300, -0.000000193,  0.000000284,  0.000000000,  0.000245079, -0.000105141, -0.000018057,  0.000003703,  0.000001540, -0.000000016
 5.469833300,  0.999994706, -0.000006633, -0.000004653, -0.000000191, -0.000000004, -0.000000006,  0.000245100, -0.000105154, -0.000018060,  0.000003703,  0.000001540, -0.000000016
 5.536416700,  0.999994946, -0.000006953, -0.000005004, -0.000000191, -0.000000010, -0.000000003,  0.000245120, -0.000105171, -0.000018063,  0.000003704,  0.000001541, -0.000000016
 5.603000000,  0.999995160, -0.000007201, -0.000004616, -0.000000191, -0.000000000, -0.000000004,  0.000245139, -0.000105184, -0.000018067,  0.000003704,  0.000001541, -0.000000016
 5.669583300,  0.999995334, -0.000007357, -0.000005686, -0.000000193, -0.000000014, -0.000000003,  0.000245159, -0.000105197, -0.000018069,  0.000003704,  0.000001541, -0.000000016
 5.736166700,  0.999995741, -0.000007047, -0.000020631, -0.000000194, -0.000000230, -0.000000001,  0.000245179, -0.000105211, -0.000018073,  0.000003704,  0.000001541, -0.000000016
 5.802750000,  0.999995277, -0.000007031, -0.000010291, -0.000000193, -0.000000076, -0.000000004,  0.000245197, -0.000105224, -0.000018074,  0.000003704,  0.000001541, -0.000000016
 5.869333300,  0.999995287, -0.000006966, -0.000011553, -0.000000193, -0.000000093, -0.000000003,  0.000245216, -0.000105241, -0.000018077,  0.000003704,  0.000001541, -0.000000016
 5.935916700,  0.999994817, -0.000007169,  0.000003373, -0.000000191,  0.000000123, -0.000000003,  0.000245234, -0.000105251, -0.000018077,  0.000003704,  0.000001543, -0.000000016
 6.002500000,  0.999996370, -0.000006180, -0.000049954, -0.000000194, -0.000000637, -0.000000004,  0.000245254, -0.000105264, -0.000018081,  0.000003704,  0.000001543, -0.000000016
 6.069083300,  0.999995613, -0.000006866, -0.000021309, -0.000000193, -0.000000234, -0.000000006,  0.000245273, -0.000105281, -0.000018086,  0.000003706,  0.000001543, -0.000000016
 6.135666700,  0.999994610, -0.000007524,  0.000014317, -0.000000193,  0.000000273, -0.000000006,  0.000245290, -0.000105293, -0.000018086,  0.000003706,  0.000001546, -0.000000016
 6.202250000,  0.999995339, -0.000007069, -0.000010899, -0.000000194, -0.000000080, -0.000000003,  0.000245309, -0.000105304, -0.000018089,  0.000003706,  0.000001546, -0.000000016
 6.268833300,  0.999995167, -0.000007084, -0.000007717, -0.000000196, -0.000000039, -0.000000004,  0.000245327, -0.000105321, -0.000018093,  0.000003706,  0.000001546, -0.000000016
 6.335416700,  0.999995380, -0.000006874, -0.000015597, -0.000000196, -0.000000151,  0.000000000,  0.000245347, -0.000105331, -0.000018097,  0.000003706,  0.000001546, -0.000000016
 6.402000000,  0.999995226, -0.000006859, -0.000012201, -0.000000194, -0.000000101,  0.000000004,  0.000245366, -0.000105343, -0.000018097,  0.000003707,  0.000001546, -0.000000016
 6.468583300,  0.999995434, -0.000006271, -0.000027413, -0.000000199, -0.000000317, -0.000000003,  0.000245383, -0.000105354, -0.000018100,  0.000003707,  0.000001546, -0.000000016
 6.535166700,  0.999995641, -0.000006473, -0.000029034, -0.000000196, -0.000000336,  0.000000003,  0.000245399, -0.000105371, -0.000018103,  0.000003707,  0.000001546, -0.000000016
 6.601750000,  0.999994899, -0.000007083, -0.000001534, -0.000000196,  0.000000051, -0.000000001,  0.000245419, -0.000105381, -0.000018106,  0.000003707,  0.000001549, -0.000000016
 6.668333300,  0.999995090, -0.000007176, -0.000003589, -0.000000194,  0.000000024, -0.000000006,  0.000245437, -0.000105394, -0.000018107,  0.000003707,  0.000001549, -0.000000016
 6.734916700,  0.999995621, -0.000006689, -0.000024977, -0.000000194, -0.000000280, -0.000000003,  0.000245454, -0.000105406, -0.000018110,  0.000003709,  0.000001549, -0.000000016
 6.801500000,  0.999995256, -0.000006891, -0.000012787, -0.000000196, -0.000000110,  0.000000001,  0.000245469, -0.000105421, -0.000018113,  0.000003710,  0.000001550, -0.000000016
 6.868083300,  0.999994931, -0.000006846, -0.000005773, -0.000000199, -0.000000010,  0.000000004,  0.000245487, -0.000105431, -0.000018114,  0.000003710,  0.000001550, -0.000000016
 6.934666700,  0.999994646, -0.000007014,  0.000003199, -0.000000196,  0.000000120,  0.000000004,  0.000245507, -0.000105441, -0.000018117,  0.000003710,  0.000001550, -0.000000016
 7.001250000,  0.999995347, -0.000006774, -0.000017091, -0.000000196, -0.000000170,  0.000000009,  0.000245523, -0.000105453, -0.000018119,  0.000003709,  0.000001550, -0.000000016
 7.067833300,  0.999994987, -0.000007166, -0.000002166, -0.000000194,  0.000000041,  0.000000004,  0.000245539, -0.000105467, -0.000018123,  0.000003709,  0.000001550, -0.000000016
 7.134416700,  0.999995263, -0.000007119, -0.000008371, -0.000000196, -0.000000051,  0.000000006,  0.000245556, -0.000105479, -0.000018126,  0.000003710,  0.000001550, -0.000000016
 7.201000000,  0.999995350, -0.000006951, -0.000013917, -0.000000196, -0.000000124,  0.000000000,  0.000245574, -0.000105490, -0.000018129,  0.000003710,  0.000001550, -0.000000016
 7.267583300,  0.999995640, -0.000006589, -0.000027306, -0.000000196, -0.000000316, -0.000000003,  0.000245590, -0.000105500, -0.000018131,  0.000003710,  0.000001551, -0.000000016
 7.334166700,  0.999994561, -0.000007127,  0.000007566, -0.000000196,  0.000000179, -0.000000000,  0.000245604, -0.000105511, -0.000018133,  0.000003710,  0.000001551, -0.000000016
 7.400750000,  0.999994634, -0.000006984,  0.000003550, -0.000000194,  0.000000124,  0.000000004,  0.000245624, -0.000105521, -0.000018136,  0.000003710,  0.000001551, -0.000000016
 7.467333300,  0.999994956, -0.000006836, -0.000006903, -0.000000194, -0.000000027,  0.000000004,  0.000245639, -0.000105534, -0.000018139,  0.000003710,  0.000001553, -0.000000016
 7.533916700,  0.999995299, -0.000006644, -0.000018473, -0.000000197, -0.000000197,  0.000000003,  0.000245654, -0.000105544, -0.000018141,  0.000003711,  0.000001553, -0.000000016
 7.600500000,  0.999994797, -0.000006951, -0.000001324, -0.000000193,  0.000000047,  0.000000003,  0.000245671, -0.000105559, -0.000018143,  0.000003711,  0.000001554, -0.000000016
 7.667083300,  0.999995783, -0.000006610, -0.000029466, -0.000000193, -0.000000346, -0.000000001,  0.000245689, -0.000105567, -0.000018149,  0.000003711,  0.000001554, -0.000000016
 7.733666700,  0.999995456, -0.000006720, -0.000020494, -0.000000194, -0.000000219, -0.000000004,  0.000245703, -0.000105579, -0.000018150,  0.000003711,  0.000001554, -0.000000016
 7.800250000,  0.999995461, -0.000006630, -0.000022107, -0.000000193, -0.000000243, -0.000000001,  0.000245721, -0.000105589, -0.000018151,  0.000003711,  0.000001554, -0.000000016
 7.866833300,  0.999995096, -0.000006706, -0.000012581, -0.000000194, -0.000000113,  0.000000007,  0.000245733, -0.000105599, -0.000018154,  0.000003711,  0.000001554, -0.000000016
 7.933416700,  0.999994166, -0.000007346,  0.000020226, -0.000000194,  0.000000353,  0.000000001,  0.000245751, -0.000105610, -0.000018157,  0.000003713,  0.000001554, -0.000000016
 8.000000000,  0.999994903, -0.000007021, -0.000002163, -0.000000191,  0.000000041, -0.000000007,  0.000245769, -0.000105620, -0.000018159,  0.000003713,  0.000001556, -0.000000016
 8.000250000,  0.975003377, -0.000007260, -0.000022760, -0.000000149, -0.000000006, -0.000000007,  0.000242761, -0.000104896, -0.000017924,  0.000003670,  0.000001541, -0.000000017
 8.000500000,  0.949998133, -0.000003231,  0.000005994, -0.000000136, -0.000000003, -0.000000001,  0.000239326, -0.000103930, -0.000017647,  0.000003620,  0.000001524, -0.000000016
 8.000750000,  0.925003827, -0.000006951, -0.000006570, -0.000000126,  0.000000060, -0.000000017,  0.000235706, -0.000102863, -0.000017354,  0.000003570,  0.000001501, -0.000000016
 8.001000000,  0.900006626, -0.000012581,  0.000001106, -0.000000090,  0.000000159, -0.000000001,  0.000231949, -0.000101719, -0.000017054,  0.000003513,  0.000001480, -0.000000016
 8.001250000,  0.875005220, -0.000001957,  0.000005239, -0.000000074,  0.000000137, -0.000000023,  0.000228079, -0.000100514, -0.000016744,  0.000003460,  0.000001456, -0.000000016
 8.001500000,  0.850002950, -0.000001299, -0.000000227, -0.000000047,  0.000000090, -0.000000013,  0.000224116, -0.000099257, -0.000016427,  0.000003401,  0.000001430, -0.000000016
 8.001750000,  0.825001814, -0.000006296, -0.000020697, -0.000000123, -0.000000100, -0.000000009,  0.000220074, -0.000097960, -0.000016104,  0.000003340,  0.000001404, -0.000000013
 8.002000000,  0.800000153, -0.000006377, -0.000015683, -0.000000140, -0.000000049, -0.000000009,  0.000215963, -0.000096626, -0.000015776,  0.000003280,  0.000001380, -0.000000013
 8.002250000,  0.775001040, -0.000001957,  0.000000617, -0.000000113,  0.000000077, -0.000000011,  0.000211794, -0.000095259, -0.000015443,  0.000003221,  0.000001356, -0.000000013
 8.002500000,  0.750000606, -0.000001556,  0.000001513, -0.000000046,  0.000000084, -0.000000006,  0.000207571, -0.000093863, -0.000015106,  0.000003159,  0.000001329, -0.000000016
 8.002750000,  0.725000057, -0.000006571, -0.000011709, -0.000000126, -0.000000030, -0.000000007,  0.000203299, -0.000092443, -0.000014763,  0.000003096,  0.000001304, -0.000000014
 8.003000000,  0.699999436, -0.000005520, -0.000006253, -0.000000147,  0.000000026, -0.000000009,  0.000198980, -0.000090999, -0.000014420,  0.000003033,  0.000001279, -0.000000014
 8.003250000,  0.675000220, -0.000004256, -0.000004187, -0.000000131,  0.000000021, -0.000000010,  0.000194623, -0.000089531, -0.000014070,  0.000002967,  0.000001250, -0.000000014
 8.003500000,  0.649999704, -0.000004203, -0.000002677, -0.000000101,  0.000000047, -0.000000006,  0.000190226, -0.000088043, -0.000013720,  0.000002906,  0.000001224, -0.000000016
 8.003750000,  0.624999709, -0.000003573,  0.000002404, -0.000000126,  0.000000087, -0.000000009,  0.000185790, -0.000086537, -0.000013367,  0.000002841,  0.000001196, -0.000000016
 8.004000000,  0.599999671, -0.000005723, -0.000006001, -0.000000149,  0.000000013, -0.000000009,  0.000181319, -0.000085009, -0.000013010,  0.000002773,  0.000001169, -0.000000016
 8.004250000,  0.574999446, -0.000006917, -0.000008359, -0.000000169,  0.000000001, -0.000000007,  0.000176813, -0.000083464, -0.000012650,  0.000002707,  0.000001140, -0.000000013
 8.004500000,  0.549999676, -0.000004330,  0.000001619, -0.000000154,  0.000000083, -0.000000009,  0.000172279, -0.000081904, -0.000012287,  0.000002640,  0.000001114, -0.000000013
 8.004750000,  0.524999976, -0.000004076,  0.000002404, -0.000000101,  0.000000080, -0.000000006,  0.000167710, -0.000080326, -0.000011924,  0.000002570,  0.000001086, -0.000000013
 8.005000000,  0.499999650, -0.000006673, -0.000007660, -0.000000157, -0.000000001, -0.000000009,  0.000163111, -0.000078731, -0.000011560,  0.000002504,  0.000001056, -0.000000014
 8.005250000,  0.474999530, -0.000005229, -0.000001134, -0.000000149,  0.000000060, -0.000000009,  0.000158484, -0.000077123, -0.000011190,  0.000002436,  0.000001029, -0.000000014
 8.005500000,  0.449999800, -0.000006634, -0.000009090, -0.000000167, -0.000000014, -0.000000009,  0.000153829, -0.000075499, -0.000010820,  0.000002366,  0.000001000, -0.000000014
 8.005750000,  0.424999850, -0.000005454, -0.000001451, -0.000000154,  0.000000056, -0.000000007,  0.000149147, -0.000073859, -0.000010447,  0.000002296,  0.000000971, -0.000000013
 8.006000000,  0.400000033, -0.000006837, -0.000000953, -0.000000176,  0.000000054, -0.000000007,  0.000144439, -0.000072210, -0.000010071,  0.000002227,  0.000000941, -0.000000014
 8.006250000,  0.374999013, -0.000006779, -0.000004130, -0.000000179,  0.000000024, -0.000000006,  0.000139706, -0.000070544, -0.000009694,  0.000002157,  0.000000913, -0.000000011
 8.006500000,  0.349999054, -0.000006007, -0.000002986, -0.000000176,  0.000000029, -0.000000007,  0.000134946, -0.000068863, -0.000009317,  0.000002087,  0.000000883, -0.000000011
 8.006750000,  0.324998991, -0.000005983, -0.000002421, -0.000000174,  0.000000039, -0.000000009,  0.000130164, -0.000067170, -0.000008937,  0.000002016,  0.000000854, -0.000000010
 8.007000000,  0.299999183, -0.000007229, -0.000001887, -0.000000186,  0.000000044, -0.000000006,  0.000125357, -0.000065469, -0.000008554,  0.000001944,  0.000000824, -0.000000011
 8.007250000,  0.274998573, -0.000006570, -0.000002846, -0.000000189,  0.000000023, -0.000000006,  0.000120530, -0.000063753, -0.000008167,  0.000001874,  0.000000794, -0.000000013
 8.007500000,  0.249998423, -0.000006640, -0.000002354, -0.000000191,  0.000000034, -0.000000007,  0.000115680, -0.000062026, -0.000007784,  0.000001799,  0.000000764, -0.000000013
 8.007750000,  0.224998670, -0.000006766, -0.000002376, -0.000000191,  0.000000036, -0.000000007,  0.000110809, -0.000060287, -0.000007397,  0.000001727,  0.000000736, -0.000000013
 8.008000000,  0.199998821, -0.000006860, -0.000001901, -0.000000194,  0.000000043, -0.000000007,  0.000105917, -0.000058536, -0.000007009,  0.000001654,  0.000000704, -0.000000013
 8.008250000,  0.174999060, -0.000006819, -0.000002416, -0.000000194,  0.000000036, -0.000000007,  0.000101006, -0.000056774, -0.000006616,  0.000001580,  0.000000673, -0.000000013
 8.008500000,  0.149999034, -0.000006844, -0.000001721, -0.000000194,  0.000000044, -0.000000007,  0.000096073, -0.000055004, -0.000006226,  0.000001510,  0.000000643, -0.000000013
 8.008750000,  0.124999214, -0.000006896, -0.000001917, -0.000000193,  0.000000044, -0.000000009,  0.000091124, -0.000053223, -0.000005831,  0.000001434,  0.000000613, -0.000000011
 8.009000000,  0.099999480, -0.000006967, -0.000002347, -0.000000191,  0.000000039, -0.000000007,  0.000086157, -0.000051433, -0.000005439,  0.000001360,  0.000000581, -0.000000010
 8.009250000,  0.074999626, -0.000007013, -0.000002250, -0.000000191,  0.000000040, -0.000000007,  0.000081169, -0.000049631, -0.000005043,  0.000001286,  0.000000550, -0.000000013
 8.009500000,  0.049999686, -0.000006964, -0.000002151, -0.000000191,  0.000000041, -0.000000007,  0.000076167, -0.000047819, -0.000004646,  0.000001211,  0.000000519, -0.000000011
 8.009750000,  0.024999946, -0.000007060, -0.000002386, -0.000000191,  0.000000039, -0.000000007,  0.000071146, -0.000045999, -0.000004247,  0.000001134,  0.000000489, -0.000000011
 8.010000000,  0.000000027, -0.000007016, -0.000002226, -0.000000194,  0.000000040, -0.000000007,  0.000066109, -0.000044170, -0.000003846,  0.000001059,  0.000000454, -0.000000010
 8.143166700,  0.000000027, -0.000007016, -0.000002281, -0.000000194,  0.000000040, -0.000000007,  0.000009571, -0.000008387, -0.000000406,  0.000000121,  0.000000079, -0.000000003
 8.276333300,  0.000000029, -0.000007017, -0.000002226, -0.000000194,  0.000000040, -0.000000007,  0.000004959, -0.000004284, -0.000000307,  0.000000061,  0.000000054,  0.000000000
 8.409500000,  0.000000027, -0.000007016, -0.000002229, -0.000000194,  0.000000040, -0.000000007,  0.000003540, -0.000002936, -0.000000291,  0.000000047,  0.000000049,  0.000000000
 8.542666700,  0.000000027, -0.000007016, -0.000002226, -0.000000194,  0.000000040, -0.000000007,  0.000003053, -0.000002451, -0.000000291,  0.000000041,  0.000000046,  0.000000000
 8.675833300,  0.000000027, -0.000007016, -0.000002233, -0.000000194,  0.000000040, -0.000000007,  0.000002859, -0.000002249, -0.000000297,  0.000000040,  0.000000046,  0.000000000
 8.809000000,  0.000000027, -0.000007016, -0.000002223, -0.000000194,  0.000000040, -0.000000007,  0.000002761, -0.000002147, -0.000000299,  0.000000037,  0.000000046,  0.000000000
 8.942166700,  0.000000027, -0.000007016, -0.000002223, -0.000000194,  0.000000040, -0.000000007,  0.000002701, -0.000002077, -0.000000299,  0.000000037,  0.000000046,  0.000000000
 9.075333300,  0.000000027, -0.000007016, -0.000002230, -0.000000194,  0.000000040, -0.000000007,  0.000002649, -0.000002020, -0.000000301,  0.000000036,  0.000000046,  0.000000000
 9.208500000,  0.000000027, -0.000007016, -0.000002229, -0.000000194,  0.000000040, -0.000000007,  0.000002604, -0.000001971, -0.000000301,  0.000000036,  0.000000047,  0.000000000
 9.341666700,  0.000000027, -0.000007016, -0.000002241, -0.000000194,  0.000000040, -0.000000007,  0.000002561, -0.000001929, -0.000000304,  0.000000037,  0.000000047,  0.000000000
 9.474833300,  0.000000026, -0.000007016, -0.000002226, -0.000000194,  0.000000040, -0.000000007,  0.000002521, -0.000001887, -0.000000307,  0.000000037,  0.000000047,  0.000000000
 9.608000000,  0.000000026, -0.000007016, -0.000002229, -0.000000194,  0.000000039, -0.000000007,  0.000002483, -0.000001846, -0.000000307,  0.000000037,  0.000000047,  0.000000000
 9.741166700,  0.000000027, -0.000007016, -0.000002234, -0.000000194,  0.000000039, -0.000000007,  0.000002447, -0.000001807, -0.000000307,  0.000000037,  0.000000047,  0.000000000
 9.874333300,  0.000000024, -0.000007017, -0.000002220, -0.000000194,  0.000000040, -0.000000007,  0.000002411, -0.000001770, -0.000000307,  0.000000036,  0.000000047,  0.000000000
10.007500000,  0.000000023, -0.000007017, -0.000002229, -0.000000194,  0.000000040, -0.000000007,  0.000002376, -0.000001736, -0.000000307,  0.000000034,  0.000000049,  0.000000000
10.140667000,  0.000000021, -0.000007019, -0.000002220, -0.000000194,  0.000000040, -0.000000007,  0.000002343, -0.000001703, -0.000000307,  0.000000034,  0.000000049,  0.000000000
10.273833000,  0.000000023, -0.000007016, -0.000002227, -0.000000194,  0.000000040, -0.000000007,  0.000002311, -0.000001670, -0.000000307,  0.000000033,  0.000000049,  0.000000000
10.407000000,  0.000000023, -0.000007016, -0.000002237, -0.000000194,  0.000000040, -0.000000007,  0.000002277, -0.000001640, -0.000000307,  0.000000033,  0.000000049,  0.000000000
10.540167000,  0.000000023, -0.000007019, -0.000002220, -0.000000194,  0.000000040, -0.000000007,  0.000002247, -0.000001610, -0.000000309,  0.000000033,  0.000000049,  0.000000000
10.673333000,  0.000000023, -0.000007019, -0.000002221, -0.000000194,  0.000000040, -0.000000007,  0.000002217, -0.000001580, -0.000000309,  0.000000033,  0.000000049,  0.000000000
10.806500000,  0.000000023, -0.000007019, -0.000002219, -0.000000194,  0.000000040, -0.000000007,  0.000002189, -0.000001551, -0.000000309,  0.000000033,  0.000000049,  0.000000000
10.939667000,  0.000000023, -0.000007017, -0.000002214, -0.000000194,  0.000000040, -0.000000007,  0.000002160, -0.000001524, -0.000000309,  0.000000033,  0.000000049,  0.000000000
11.072833000,  0.000000024, -0.000007019, -0.000002220, -0.000000194,  0.000000040, -0.000000007,  0.000002133, -0.000001496, -0.000000309,  0.000000033,  0.000000049,  0.000000000
11.206000000,  0.000000024, -0.000007019, -0.000002219, -0.000000194,  0.000000040, -0.000000007,  0.000002106, -0.000001470, -0.000000309,  0.000000033,  0.000000049,  0.000000000
11.339167000,  0.000000024, -0.000007019, -0.000002216, -0.000000194,  0.000000040, -0.000000007,  0.000002079, -0.000001446, -0.000000309,  0.000000031,  0.000000049,  0.000000000
11.472333000,  0.000000024, -0.000007019, -0.000002214, -0.000000194,  0.000000040, -0.000000007,  0.000002054, -0.000001419, -0.000000309,  0.000000031,  0.000000049,  0.000000000
11.605500000,  0.000000024, -0.000007019, -0.000002219, -0.000000194,  0.000000040, -0.000000007,  0.000002030, -0.000001396, -0.000000309,  0.000000031,  0.000000049,  0.000000000
11.738667000,  0.000000023, -0.000007017, -0.000002219, -0.000000194,  0.000000040, -0.000000007,  0.000002004, -0.000001371, -0.000000309,  0.000000031,  0.000000049,  0.000000000
11.871833000,  0.000000023, -0.000007019, -0.000002224, -0.000000194,  0.000000040, -0.000000007,  0.000001980, -0.000001347, -0.000000307,  0.000000030,  0.000000049,  0.000000000
12.005000000,  0.000000026, -0.000007017, -0.000002227, -0.000000194,  0.000000040, -0.000000007,  0.000001956, -0.000001326, -0.000000307,  0.000000030,  0.000000049,  0.000000000
12.138167000,  0.000000026, -0.000007016, -0.000002226, -0.000000194,  0.000000040, -0.000000007,  0.000001934, -0.000001306, -0.000000307,  0.000000030,  0.000000049,  0.000000000
12.271333000,  0.000000026, -0.000007016, -0.000002224, -0.000000194,  0.000000040, -0.000000007,  0.000001913, -0.000001284, -0.000000307,  0.000000030,  0.000000049,  0.000000000
12.404500000,  0.000000024, -0.000007016, -0.000002223, -0.000000194,  0.000000040, -0.000000007,  0.000001887, -0.000001264, -0.000000307,  0.000000030,  0.000000049,  0.000000000
12.537667000,  0.000000024, -0.000007016, -0.000002224, -0.000000194,  0.000000040, -0.000000007,  0.000001866, -0.000001244, -0.000000307,  0.000000029,  0.000000047,  0.000000000
12.670833000,  0.000000024, -0.000007016, -0.000002229, -0.000000194,  0.000000040, -0.000000007,  0.000001846, -0.000001224, -0.000000307,  0.000000029,  0.000000047,  0.000000000
12.804000000,  0.000000024, -0.000007016, -0.000002223, -0.000000194,  0.000000040, -0.000000007,  0.000001826, -0.000001204, -0.000000307,  0.000000029,  0.000000047,  0.000000000
12.937167000,  0.000000023, -0.000007017, -0.000002233, -0.000000194,  0.000000040, -0.000000007,  0.000001806, -0.000001184, -0.000000307,  0.000000029,  0.000000047,  0.000000000
13.070333000,  0.000000023, -0.000007019, -0.000002221, -0.000000194,  0.000000040, -0.000000007,  0.000001786, -0.000001166, -0.000000307,  0.000000029,  0.000000047,  0.000000000
13.203500000,  0.000000023, -0.000007019, -0.000002236, -0.000000194,  0.000000040, -0.000000007,  0.000001767, -0.000001146, -0.000000307,  0.000000029,  0.000000047,  0.000000000
13.336667000,  0.000000023, -0.000007019, -0.000002224, -0.000000194,  0.000000040, -0.000000007,  0.000001747, -0.000001130, -0.000000307,  0.000000029,  0.000000047,  0.000000000
13.469833000,  0.000000021, -0.000007020, -0.000002231, -0.000000194,  0.000000040, -0.000000007,  0.000001730, -0.000001114, -0.000000307,  0.000000027,  0.000000047,  0.000000000
13.603000000,  0.000000021, -0.000007020, -0.000002224, -0.000000194,  0.000000040, -0.000000007,  0.000001713, -0.000001096, -0.000000307,  0.000000027,  0.000000047,  0.000000000
13.736167000,  0.000000021, -0.000007020, -0.000002230, -0.000000194,  0.000000040, -0.000000007,  0.000001696, -0.000001077, -0.000000307,  0.000000027,  0.000000047,  0.000000000
13.869333000,  0.000000021, -0.000007020, -0.000002234, -0.000000194,  0.000000040, -0.000000007,  0.000001676, -0.000001064, -0.000000304,  0.000000027,  0.000000047,  0.000000000
14.002500000,  0.000000021, -0.000007021, -0.000002240, -0.000000194,  0.000000040, -0.000000007,  0.000001663, -0.000001047, -0.000000304,  0.000000027,  0.000000047,  0.000000000
14.135667000,  0.000000021, -0.000007021, -0.000002244, -0.000000194,  0.000000040, -0.000000007,  0.000001643, -0.000001033, -0.000000303,  0.000000027,  0.000000047,  0.000000000
14.268833000,  0.000000021, -0.000007021, -0.000002236, -0.000000194,  0.000000040, -0.000000007,  0.000001627, -0.000001017, -0.000000303,  0.000000027,  0.000000047,  0.000000000
14.402000000,  0.000000021, -0.000007021, -0.000002231, -0.000000194,  0.000000040, -0.000000007,  0.000001613, -0.000001003, -0.000000303,  0.000000026,  0.000000047,  0.000000000
14.535167000,  0.000000021, -0.000007021, -0.000002246, -0.000000194,  0.000000040, -0.000000007,  0.000001597, -0.000000987, -0.000000301,  0.000000026,  0.000000047,  0.000000000
14.668333000,  0.000000020, -0.000007020, -0.000002246, -0.000000194,  0.000000040, -0.000000007,  0.000001583, -0.000000976, -0.000000301,  0.000000026,  0.000000047,  0.000000000
14.801500000,  0.000000021, -0.000007020, -0.000002244, -0.000000194,  0.000000040, -0.000000007,  0.000001566, -0.000000961, -0.000000301,  0.000000026,  0.000000047,  0.000000000
14.934667000,  0.000000021, -0.000007020, -0.000002230, -0.000000194,  0.000000040, -0.000000007,  0.000001554, -0.000000947, -0.000000300,  0.000000026,  0.000000047,  0.000000000
15.067833000,  0.000000021, -0.000007020, -0.000002231, -0.000000194,  0.000000040, -0.000000007,  0.000001539, -0.000000936, -0.000000300,  0.000000026,  0.000000047,  0.000000000
15.201000000,  0.000000021, -0.000007019, -0.000002229, -0.000000194,  0.000000040, -0.000000007,  0.000001524, -0.000000921, -0.000000300,  0.000000026,  0.000000047,  0.000000000
15.334167000,  0.000000021, -0.000007019, -0.000002240, -0.000000194,  0.000000040, -0.000000007,  0.000001514, -0.000000909, -0.000000299,  0.000000026,  0.000000047,  0.000000000
15.467333000,  0.000000023, -0.000007019, -0.000002231, -0.000000194,  0.000000040, -0.000000007,  0.000001497, -0.000000897, -0.000000299,  0.000000024,  0.000000047,  0.000000000
15.600500000,  0.000000021, -0.000007020, -0.000002236, -0.000000194,  0.000000040, -0.000000007,  0.000001484, -0.000000887, -0.000000299,  0.000000024,  0.000000047,  0.000000000
15.733667000,  0.000000021, -0.000007020, -0.000002231, -0.000000194,  0.000000040, -0.000000007,  0.000001474, -0.000000876, -0.000000299,  0.000000024,  0.000000047,  0.000000000
15.866833000,  0.000000023, -0.000007020, -0.000002229, -0.000000194,  0.000000040, -0.000000007,  0.000001460, -0.000000864, -0.000000299,  0.000000024,  0.000000047,  0.000000000
16.000000000,  0.000000023, -0.000007020, -0.000002230, -0.000000194,  0.000000040, -0.000000007,  0.000001447, -0.000000853, -0.000000299,  0.000000024,  0.000000047,  0.000000000
